  Sr odd                                                              
  Z = 38.0
 Am = 88.0
  J =  1.0
 Jm =  1.0
 Nso=  12
 Nc =   3618
 Kv =  4                                                                   
 Nlv=  12                                                                  
 Ne =  2                                                                   
 Kl4=  1                                                                   
 Nc4=999                                                                   
Crt4= 0.0001                                                               
kout= 0                                                                    
Ncpt=     0     #
Cut0= 0.0001                                                               
N_it= 50                                                                   
Kbrt= 2                                                                    
     0.1002     0.2002    -0.2102     0.2104     0.3002    -0.3102
     0.3104    -0.3204     0.3206     0.4002    -0.4102     0.4104
   1
   1 0.5001    -0.5101
   2 0.5001     0.5101
   2
   3-0.5101    -0.4201
   4-0.5101     0.4201
   5 0.5101    -0.4201
   6 0.5101     0.4201
   3
   7-0.5101     0.6001
   8 0.5101     0.6001
   4
   9-0.5101    -0.5201
  10-0.5101     0.5201
  11 0.5101    -0.5201
  12 0.5101     0.5201
   5
  13-0.5101     0.7001
  14 0.5101     0.7001
   6
  15-0.5101    -0.6201
  16-0.5101     0.6201
  17 0.5101    -0.6201
  18 0.5101     0.6201
   7
  19-0.5101    -0.5401
  20-0.5101     0.5401
  21 0.5101    -0.5401
  22 0.5101     0.5401
   8
  23-0.5101    -0.6401
  24-0.5101     0.6401
  25 0.5101    -0.6401
  26 0.5101     0.6401
   9
  27-0.5101    -0.7201
  28-0.5101     0.7201
  29 0.5101    -0.7201
  30 0.5101     0.7201
  10
  31-0.5101    -0.7401
  32-0.5101     0.7401
  33 0.5101    -0.7401
  34 0.5101     0.7401
  11
  35-0.5101     0.8001
  36 0.5101     0.8001
  12
  37-0.5101    -0.8201
  38-0.5101     0.8201
  39 0.5101    -0.8201
  40 0.5101     0.8201
  13
  41-0.5101    -0.8401
  42-0.5101     0.8401
  43 0.5101    -0.8401
  44 0.5101     0.8401
  14
  45-0.5101     0.9001
  46 0.5101     0.9001
  15
  47-0.5101    -0.9201
  48-0.5101     0.9201
  49 0.5101    -0.9201
  50 0.5101     0.9201
  16
  51-0.5101    -0.9401
  52-0.5101     0.9401
  53 0.5101    -0.9401
  54 0.5101     0.9401
  17
  55-0.5101     1.0001
  56 0.5101     1.0001
  18
  57-0.5101    -1.0201
  58-0.5101     1.0201
  59 0.5101    -1.0201
  60 0.5101     1.0201
  19
  61-0.5101    -1.0401
  62-0.5101     1.0401
  63 0.5101    -1.0401
  64 0.5101     1.0401
  20
  65-0.5101     1.1001
  66 0.5101     1.1001
  21
  67-0.5101    -1.1201
  68-0.5101     1.1201
  69 0.5101    -1.1201
  70 0.5101     1.1201
  22
  71-0.5101    -1.1401
  72-0.5101     1.1401
  73 0.5101    -1.1401
  74 0.5101     1.1401
  23
  75-0.5101     1.2001
  76 0.5101     1.2001
  24
  77-0.5101    -1.2201
  78-0.5101     1.2201
  79 0.5101    -1.2201
  80 0.5101     1.2201
  25
  81-0.5101    -1.2401
  82-0.5101     1.2401
  83 0.5101    -1.2401
  84 0.5101     1.2401
  26
  85-0.5101     1.3001
  86 0.5101     1.3001
  27
  87-0.5101    -1.3201
  88-0.5101     1.3201
  89 0.5101    -1.3201
  90 0.5101     1.3201
  28
  91-0.5101    -1.3401
  92-0.5101     1.3401
  93 0.5101    -1.3401
  94 0.5101     1.3401
  29
  95-0.5101     1.4001
  96 0.5101     1.4001
  30
  97-0.5101    -1.4201
  98-0.5101     1.4201
  99 0.5101    -1.4201
 100 0.5101     1.4201
  31
 101-0.5101    -1.4401
 102-0.5101     1.4401
 103 0.5101    -1.4401
 104 0.5101     1.4401
  32
 105-0.5101     1.5001
 106 0.5101     1.5001
  33
 107-0.5101    -1.5201
 108-0.5101     1.5201
 109 0.5101    -1.5201
 110 0.5101     1.5201
  34
 111-0.5101    -1.5401
 112-0.5101     1.5401
 113 0.5101    -1.5401
 114 0.5101     1.5401
  35
 115-0.5101     1.6001
 116 0.5101     1.6001
  36
 117-0.5101    -1.6201
 118-0.5101     1.6201
 119 0.5101    -1.6201
 120 0.5101     1.6201
  37
 121-0.5101    -1.6401
 122-0.5101     1.6401
 123 0.5101    -1.6401
 124 0.5101     1.6401
  38
 125-0.5101     1.7001
 126 0.5101     1.7001
  39
 127-0.5101    -1.7201
 128-0.5101     1.7201
 129 0.5101    -1.7201
 130 0.5101     1.7201
  40
 131-0.5101    -1.7401
 132-0.5101     1.7401
 133 0.5101    -1.7401
 134 0.5101     1.7401
  41
 135 0.5001    -0.6101
 136 0.5001     0.6101
  42
 137 0.5001    -0.7101
 138 0.5001     0.7101
  43
 139 0.5001    -0.4301
 140 0.5001     0.4301
  44
 141 0.5001    -0.5301
 142 0.5001     0.5301
  45
 143 0.5001    -0.6301
 144 0.5001     0.6301
  46
 145 0.5001    -0.7301
 146 0.5001     0.7301
  47
 147 0.5001    -0.8101
 148 0.5001     0.8101
  48
 149 0.5001    -0.8301
 150 0.5001     0.8301
  49
 151 0.5001    -0.9101
 152 0.5001     0.9101
  50
 153 0.5001    -0.9301
 154 0.5001     0.9301
  51
 155 0.5001    -1.0101
 156 0.5001     1.0101
  52
 157 0.5001    -1.0301
 158 0.5001     1.0301
  53
 159 0.5001    -1.1101
 160 0.5001     1.1101
  54
 161 0.5001    -1.1301
 162 0.5001     1.1301
  55
 163 0.5001    -1.2101
 164 0.5001     1.2101
  56
 165 0.5001    -1.2301
 166 0.5001     1.2301
  57
 167 0.5001    -1.3101
 168 0.5001     1.3101
  58
 169 0.5001    -1.3301
 170 0.5001     1.3301
  59
 171 0.5001    -1.4101
 172 0.5001     1.4101
  60
 173 0.5001    -1.4301
 174 0.5001     1.4301
  61
 175 0.5001    -1.5101
 176 0.5001     1.5101
  62
 177 0.5001    -1.5301
 178 0.5001     1.5301
  63
 179 0.5001    -1.6101
 180 0.5001     1.6101
  64
 181 0.5001    -1.6301
 182 0.5001     1.6301
  65
 183 0.5001    -1.7101
 184 0.5001     1.7101
  66
 185 0.5001    -1.7301
 186 0.5001     1.7301
  67
 187-0.4201    -0.6101
 188-0.4201     0.6101
 189 0.4201    -0.6101
 190 0.4201     0.6101
  68
 191-0.4201    -0.7101
 192-0.4201     0.7101
 193 0.4201    -0.7101
 194 0.4201     0.7101
  69
 195-0.4201    -0.4301
 196-0.4201     0.4301
 197 0.4201    -0.4301
 198 0.4201     0.4301
  70
 199-0.4201    -0.5301
 200-0.4201     0.5301
 201 0.4201    -0.5301
 202 0.4201     0.5301
  71
 203-0.4201    -0.6301
 204-0.4201     0.6301
 205 0.4201    -0.6301
 206 0.4201     0.6301
  72
 207-0.4201    -0.7301
 208-0.4201     0.7301
 209 0.4201    -0.7301
 210 0.4201     0.7301
  73
 211-0.4201    -0.8101
 212-0.4201     0.8101
 213 0.4201    -0.8101
 214 0.4201     0.8101
  74
 215-0.4201    -0.8301
 216-0.4201     0.8301
 217 0.4201    -0.8301
 218 0.4201     0.8301
  75
 219-0.4201    -0.9101
 220-0.4201     0.9101
 221 0.4201    -0.9101
 222 0.4201     0.9101
  76
 223-0.4201    -0.9301
 224-0.4201     0.9301
 225 0.4201    -0.9301
 226 0.4201     0.9301
  77
 227-0.4201    -1.0101
 228-0.4201     1.0101
 229 0.4201    -1.0101
 230 0.4201     1.0101
  78
 231-0.4201    -1.0301
 232-0.4201     1.0301
 233 0.4201    -1.0301
 234 0.4201     1.0301
  79
 235-0.4201    -1.1101
 236-0.4201     1.1101
 237 0.4201    -1.1101
 238 0.4201     1.1101
  80
 239-0.4201    -1.1301
 240-0.4201     1.1301
 241 0.4201    -1.1301
 242 0.4201     1.1301
  81
 243-0.4201    -1.2101
 244-0.4201     1.2101
 245 0.4201    -1.2101
 246 0.4201     1.2101
  82
 247-0.4201    -1.2301
 248-0.4201     1.2301
 249 0.4201    -1.2301
 250 0.4201     1.2301
  83
 251-0.4201    -1.3101
 252-0.4201     1.3101
 253 0.4201    -1.3101
 254 0.4201     1.3101
  84
 255-0.4201    -1.3301
 256-0.4201     1.3301
 257 0.4201    -1.3301
 258 0.4201     1.3301
  85
 259-0.4201    -1.4101
 260-0.4201     1.4101
 261 0.4201    -1.4101
 262 0.4201     1.4101
  86
 263-0.4201    -1.4301
 264-0.4201     1.4301
 265 0.4201    -1.4301
 266 0.4201     1.4301
  87
 267-0.4201    -1.5101
 268-0.4201     1.5101
 269 0.4201    -1.5101
 270 0.4201     1.5101
  88
 271-0.4201    -1.5301
 272-0.4201     1.5301
 273 0.4201    -1.5301
 274 0.4201     1.5301
  89
 275-0.4201    -1.6101
 276-0.4201     1.6101
 277 0.4201    -1.6101
 278 0.4201     1.6101
  90
 279-0.4201    -1.6301
 280-0.4201     1.6301
 281 0.4201    -1.6301
 282 0.4201     1.6301
  91
 283-0.4201    -1.7101
 284-0.4201     1.7101
 285 0.4201    -1.7101
 286 0.4201     1.7101
  92
 287-0.4201    -1.7301
 288-0.4201     1.7301
 289 0.4201    -1.7301
 290 0.4201     1.7301
  93
 291 0.6001    -0.6101
 292 0.6001     0.6101
  94
 293 0.6001    -0.7101
 294 0.6001     0.7101
  95
 295 0.6001    -0.4301
 296 0.6001     0.4301
  96
 297 0.6001    -0.5301
 298 0.6001     0.5301
  97
 299 0.6001    -0.6301
 300 0.6001     0.6301
  98
 301 0.6001    -0.7301
 302 0.6001     0.7301
  99
 303 0.6001    -0.8101
 304 0.6001     0.8101
 100
 305 0.6001    -0.8301
 306 0.6001     0.8301
 101
 307 0.6001    -0.9101
 308 0.6001     0.9101
 102
 309 0.6001    -0.9301
 310 0.6001     0.9301
 103
 311 0.6001    -1.0101
 312 0.6001     1.0101
 104
 313 0.6001    -1.0301
 314 0.6001     1.0301
 105
 315 0.6001    -1.1101
 316 0.6001     1.1101
 106
 317 0.6001    -1.1301
 318 0.6001     1.1301
 107
 319 0.6001    -1.2101
 320 0.6001     1.2101
 108
 321 0.6001    -1.2301
 322 0.6001     1.2301
 109
 323 0.6001    -1.3101
 324 0.6001     1.3101
 110
 325 0.6001    -1.3301
 326 0.6001     1.3301
 111
 327 0.6001    -1.4101
 328 0.6001     1.4101
 112
 329 0.6001    -1.4301
 330 0.6001     1.4301
 113
 331 0.6001    -1.5101
 332 0.6001     1.5101
 114
 333 0.6001    -1.5301
 334 0.6001     1.5301
 115
 335 0.6001    -1.6101
 336 0.6001     1.6101
 116
 337 0.6001    -1.6301
 338 0.6001     1.6301
 117
 339 0.6001    -1.7101
 340 0.6001     1.7101
 118
 341 0.6001    -1.7301
 342 0.6001     1.7301
 119
 343-0.6101    -0.5201
 344-0.6101     0.5201
 345 0.6101    -0.5201
 346 0.6101     0.5201
 120
 347-0.6101     0.7001
 348 0.6101     0.7001
 121
 349-0.6101    -0.6201
 350-0.6101     0.6201
 351 0.6101    -0.6201
 352 0.6101     0.6201
 122
 353-0.6101    -0.5401
 354-0.6101     0.5401
 355 0.6101    -0.5401
 356 0.6101     0.5401
 123
 357-0.6101    -0.6401
 358-0.6101     0.6401
 359 0.6101    -0.6401
 360 0.6101     0.6401
 124
 361-0.6101    -0.7201
 362-0.6101     0.7201
 363 0.6101    -0.7201
 364 0.6101     0.7201
 125
 365-0.6101    -0.7401
 366-0.6101     0.7401
 367 0.6101    -0.7401
 368 0.6101     0.7401
 126
 369-0.6101     0.8001
 370 0.6101     0.8001
 127
 371-0.6101    -0.8201
 372-0.6101     0.8201
 373 0.6101    -0.8201
 374 0.6101     0.8201
 128
 375-0.6101    -0.8401
 376-0.6101     0.8401
 377 0.6101    -0.8401
 378 0.6101     0.8401
 129
 379-0.6101     0.9001
 380 0.6101     0.9001
 130
 381-0.6101    -0.9201
 382-0.6101     0.9201
 383 0.6101    -0.9201
 384 0.6101     0.9201
 131
 385-0.6101    -0.9401
 386-0.6101     0.9401
 387 0.6101    -0.9401
 388 0.6101     0.9401
 132
 389-0.6101     1.0001
 390 0.6101     1.0001
 133
 391-0.6101    -1.0201
 392-0.6101     1.0201
 393 0.6101    -1.0201
 394 0.6101     1.0201
 134
 395-0.6101    -1.0401
 396-0.6101     1.0401
 397 0.6101    -1.0401
 398 0.6101     1.0401
 135
 399-0.6101     1.1001
 400 0.6101     1.1001
 136
 401-0.6101    -1.1201
 402-0.6101     1.1201
 403 0.6101    -1.1201
 404 0.6101     1.1201
 137
 405-0.6101    -1.1401
 406-0.6101     1.1401
 407 0.6101    -1.1401
 408 0.6101     1.1401
 138
 409-0.6101     1.2001
 410 0.6101     1.2001
 139
 411-0.6101    -1.2201
 412-0.6101     1.2201
 413 0.6101    -1.2201
 414 0.6101     1.2201
 140
 415-0.6101    -1.2401
 416-0.6101     1.2401
 417 0.6101    -1.2401
 418 0.6101     1.2401
 141
 419-0.6101     1.3001
 420 0.6101     1.3001
 142
 421-0.6101    -1.3201
 422-0.6101     1.3201
 423 0.6101    -1.3201
 424 0.6101     1.3201
 143
 425-0.6101    -1.3401
 426-0.6101     1.3401
 427 0.6101    -1.3401
 428 0.6101     1.3401
 144
 429-0.6101     1.4001
 430 0.6101     1.4001
 145
 431-0.6101    -1.4201
 432-0.6101     1.4201
 433 0.6101    -1.4201
 434 0.6101     1.4201
 146
 435-0.6101    -1.4401
 436-0.6101     1.4401
 437 0.6101    -1.4401
 438 0.6101     1.4401
 147
 439-0.6101     1.5001
 440 0.6101     1.5001
 148
 441-0.6101    -1.5201
 442-0.6101     1.5201
 443 0.6101    -1.5201
 444 0.6101     1.5201
 149
 445-0.6101    -1.5401
 446-0.6101     1.5401
 447 0.6101    -1.5401
 448 0.6101     1.5401
 150
 449-0.6101     1.6001
 450 0.6101     1.6001
 151
 451-0.6101    -1.6201
 452-0.6101     1.6201
 453 0.6101    -1.6201
 454 0.6101     1.6201
 152
 455-0.6101    -1.6401
 456-0.6101     1.6401
 457 0.6101    -1.6401
 458 0.6101     1.6401
 153
 459-0.6101     1.7001
 460 0.6101     1.7001
 154
 461-0.6101    -1.7201
 462-0.6101     1.7201
 463 0.6101    -1.7201
 464 0.6101     1.7201
 155
 465-0.6101    -1.7401
 466-0.6101     1.7401
 467 0.6101    -1.7401
 468 0.6101     1.7401
 156
 469-0.5201    -0.7101
 470-0.5201     0.7101
 471 0.5201    -0.7101
 472 0.5201     0.7101
 157
 473-0.5201    -0.4301
 474-0.5201     0.4301
 475 0.5201    -0.4301
 476 0.5201     0.4301
 158
 477-0.5201    -0.5301
 478-0.5201     0.5301
 479 0.5201    -0.5301
 480 0.5201     0.5301
 159
 481-0.5201    -0.6301
 482-0.5201     0.6301
 483 0.5201    -0.6301
 484 0.5201     0.6301
 160
 485-0.5201    -0.7301
 486-0.5201     0.7301
 487 0.5201    -0.7301
 488 0.5201     0.7301
 161
 489-0.5201    -0.8101
 490-0.5201     0.8101
 491 0.5201    -0.8101
 492 0.5201     0.8101
 162
 493-0.5201    -0.8301
 494-0.5201     0.8301
 495 0.5201    -0.8301
 496 0.5201     0.8301
 163
 497-0.5201    -0.9101
 498-0.5201     0.9101
 499 0.5201    -0.9101
 500 0.5201     0.9101
 164
 501-0.5201    -0.9301
 502-0.5201     0.9301
 503 0.5201    -0.9301
 504 0.5201     0.9301
 165
 505-0.5201    -1.0101
 506-0.5201     1.0101
 507 0.5201    -1.0101
 508 0.5201     1.0101
 166
 509-0.5201    -1.0301
 510-0.5201     1.0301
 511 0.5201    -1.0301
 512 0.5201     1.0301
 167
 513-0.5201    -1.1101
 514-0.5201     1.1101
 515 0.5201    -1.1101
 516 0.5201     1.1101
 168
 517-0.5201    -1.1301
 518-0.5201     1.1301
 519 0.5201    -1.1301
 520 0.5201     1.1301
 169
 521-0.5201    -1.2101
 522-0.5201     1.2101
 523 0.5201    -1.2101
 524 0.5201     1.2101
 170
 525-0.5201    -1.2301
 526-0.5201     1.2301
 527 0.5201    -1.2301
 528 0.5201     1.2301
 171
 529-0.5201    -1.3101
 530-0.5201     1.3101
 531 0.5201    -1.3101
 532 0.5201     1.3101
 172
 533-0.5201    -1.3301
 534-0.5201     1.3301
 535 0.5201    -1.3301
 536 0.5201     1.3301
 173
 537-0.5201    -1.4101
 538-0.5201     1.4101
 539 0.5201    -1.4101
 540 0.5201     1.4101
 174
 541-0.5201    -1.4301
 542-0.5201     1.4301
 543 0.5201    -1.4301
 544 0.5201     1.4301
 175
 545-0.5201    -1.5101
 546-0.5201     1.5101
 547 0.5201    -1.5101
 548 0.5201     1.5101
 176
 549-0.5201    -1.5301
 550-0.5201     1.5301
 551 0.5201    -1.5301
 552 0.5201     1.5301
 177
 553-0.5201    -1.6101
 554-0.5201     1.6101
 555 0.5201    -1.6101
 556 0.5201     1.6101
 178
 557-0.5201    -1.6301
 558-0.5201     1.6301
 559 0.5201    -1.6301
 560 0.5201     1.6301
 179
 561-0.5201    -1.7101
 562-0.5201     1.7101
 563 0.5201    -1.7101
 564 0.5201     1.7101
 180
 565-0.5201    -1.7301
 566-0.5201     1.7301
 567 0.5201    -1.7301
 568 0.5201     1.7301
 181
 569 0.7001    -0.7101
 570 0.7001     0.7101
 182
 571 0.7001    -0.4301
 572 0.7001     0.4301
 183
 573 0.7001    -0.5301
 574 0.7001     0.5301
 184
 575 0.7001    -0.6301
 576 0.7001     0.6301
 185
 577 0.7001    -0.7301
 578 0.7001     0.7301
 186
 579 0.7001    -0.8101
 580 0.7001     0.8101
 187
 581 0.7001    -0.8301
 582 0.7001     0.8301
 188
 583 0.7001    -0.9101
 584 0.7001     0.9101
 189
 585 0.7001    -0.9301
 586 0.7001     0.9301
 190
 587 0.7001    -1.0101
 588 0.7001     1.0101
 191
 589 0.7001    -1.0301
 590 0.7001     1.0301
 192
 591 0.7001    -1.1101
 592 0.7001     1.1101
 193
 593 0.7001    -1.1301
 594 0.7001     1.1301
 194
 595 0.7001    -1.2101
 596 0.7001     1.2101
 195
 597 0.7001    -1.2301
 598 0.7001     1.2301
 196
 599 0.7001    -1.3101
 600 0.7001     1.3101
 197
 601 0.7001    -1.3301
 602 0.7001     1.3301
 198
 603 0.7001    -1.4101
 604 0.7001     1.4101
 199
 605 0.7001    -1.4301
 606 0.7001     1.4301
 200
 607 0.7001    -1.5101
 608 0.7001     1.5101
 201
 609 0.7001    -1.5301
 610 0.7001     1.5301
 202
 611 0.7001    -1.6101
 612 0.7001     1.6101
 203
 613 0.7001    -1.6301
 614 0.7001     1.6301
 204
 615 0.7001    -1.7101
 616 0.7001     1.7101
 205
 617 0.7001    -1.7301
 618 0.7001     1.7301
 206
 619-0.7101    -0.6201
 620-0.7101     0.6201
 621 0.7101    -0.6201
 622 0.7101     0.6201
 207
 623-0.7101    -0.5401
 624-0.7101     0.5401
 625 0.7101    -0.5401
 626 0.7101     0.5401
 208
 627-0.7101    -0.6401
 628-0.7101     0.6401
 629 0.7101    -0.6401
 630 0.7101     0.6401
 209
 631-0.7101    -0.7201
 632-0.7101     0.7201
 633 0.7101    -0.7201
 634 0.7101     0.7201
 210
 635-0.7101    -0.7401
 636-0.7101     0.7401
 637 0.7101    -0.7401
 638 0.7101     0.7401
 211
 639-0.7101     0.8001
 640 0.7101     0.8001
 212
 641-0.7101    -0.8201
 642-0.7101     0.8201
 643 0.7101    -0.8201
 644 0.7101     0.8201
 213
 645-0.7101    -0.8401
 646-0.7101     0.8401
 647 0.7101    -0.8401
 648 0.7101     0.8401
 214
 649-0.7101     0.9001
 650 0.7101     0.9001
 215
 651-0.7101    -0.9201
 652-0.7101     0.9201
 653 0.7101    -0.9201
 654 0.7101     0.9201
 216
 655-0.7101    -0.9401
 656-0.7101     0.9401
 657 0.7101    -0.9401
 658 0.7101     0.9401
 217
 659-0.7101     1.0001
 660 0.7101     1.0001
 218
 661-0.7101    -1.0201
 662-0.7101     1.0201
 663 0.7101    -1.0201
 664 0.7101     1.0201
 219
 665-0.7101    -1.0401
 666-0.7101     1.0401
 667 0.7101    -1.0401
 668 0.7101     1.0401
 220
 669-0.7101     1.1001
 670 0.7101     1.1001
 221
 671-0.7101    -1.1201
 672-0.7101     1.1201
 673 0.7101    -1.1201
 674 0.7101     1.1201
 222
 675-0.7101    -1.1401
 676-0.7101     1.1401
 677 0.7101    -1.1401
 678 0.7101     1.1401
 223
 679-0.7101     1.2001
 680 0.7101     1.2001
 224
 681-0.7101    -1.2201
 682-0.7101     1.2201
 683 0.7101    -1.2201
 684 0.7101     1.2201
 225
 685-0.7101    -1.2401
 686-0.7101     1.2401
 687 0.7101    -1.2401
 688 0.7101     1.2401
 226
 689-0.7101     1.3001
 690 0.7101     1.3001
 227
 691-0.7101    -1.3201
 692-0.7101     1.3201
 693 0.7101    -1.3201
 694 0.7101     1.3201
 228
 695-0.7101    -1.3401
 696-0.7101     1.3401
 697 0.7101    -1.3401
 698 0.7101     1.3401
 229
 699-0.7101     1.4001
 700 0.7101     1.4001
 230
 701-0.7101    -1.4201
 702-0.7101     1.4201
 703 0.7101    -1.4201
 704 0.7101     1.4201
 231
 705-0.7101    -1.4401
 706-0.7101     1.4401
 707 0.7101    -1.4401
 708 0.7101     1.4401
 232
 709-0.7101     1.5001
 710 0.7101     1.5001
 233
 711-0.7101    -1.5201
 712-0.7101     1.5201
 713 0.7101    -1.5201
 714 0.7101     1.5201
 234
 715-0.7101    -1.5401
 716-0.7101     1.5401
 717 0.7101    -1.5401
 718 0.7101     1.5401
 235
 719-0.7101     1.6001
 720 0.7101     1.6001
 236
 721-0.7101    -1.6201
 722-0.7101     1.6201
 723 0.7101    -1.6201
 724 0.7101     1.6201
 237
 725-0.7101    -1.6401
 726-0.7101     1.6401
 727 0.7101    -1.6401
 728 0.7101     1.6401
 238
 729-0.7101     1.7001
 730 0.7101     1.7001
 239
 731-0.7101    -1.7201
 732-0.7101     1.7201
 733 0.7101    -1.7201
 734 0.7101     1.7201
 240
 735-0.7101    -1.7401
 736-0.7101     1.7401
 737 0.7101    -1.7401
 738 0.7101     1.7401
 241
 739-0.6201    -0.4301
 740-0.6201     0.4301
 741 0.6201    -0.4301
 742 0.6201     0.4301
 242
 743-0.6201    -0.5301
 744-0.6201     0.5301
 745 0.6201    -0.5301
 746 0.6201     0.5301
 243
 747-0.6201    -0.6301
 748-0.6201     0.6301
 749 0.6201    -0.6301
 750 0.6201     0.6301
 244
 751-0.6201    -0.7301
 752-0.6201     0.7301
 753 0.6201    -0.7301
 754 0.6201     0.7301
 245
 755-0.6201    -0.8101
 756-0.6201     0.8101
 757 0.6201    -0.8101
 758 0.6201     0.8101
 246
 759-0.6201    -0.8301
 760-0.6201     0.8301
 761 0.6201    -0.8301
 762 0.6201     0.8301
 247
 763-0.6201    -0.9101
 764-0.6201     0.9101
 765 0.6201    -0.9101
 766 0.6201     0.9101
 248
 767-0.6201    -0.9301
 768-0.6201     0.9301
 769 0.6201    -0.9301
 770 0.6201     0.9301
 249
 771-0.6201    -1.0101
 772-0.6201     1.0101
 773 0.6201    -1.0101
 774 0.6201     1.0101
 250
 775-0.6201    -1.0301
 776-0.6201     1.0301
 777 0.6201    -1.0301
 778 0.6201     1.0301
 251
 779-0.6201    -1.1101
 780-0.6201     1.1101
 781 0.6201    -1.1101
 782 0.6201     1.1101
 252
 783-0.6201    -1.1301
 784-0.6201     1.1301
 785 0.6201    -1.1301
 786 0.6201     1.1301
 253
 787-0.6201    -1.2101
 788-0.6201     1.2101
 789 0.6201    -1.2101
 790 0.6201     1.2101
 254
 791-0.6201    -1.2301
 792-0.6201     1.2301
 793 0.6201    -1.2301
 794 0.6201     1.2301
 255
 795-0.6201    -1.3101
 796-0.6201     1.3101
 797 0.6201    -1.3101
 798 0.6201     1.3101
 256
 799-0.6201    -1.3301
 800-0.6201     1.3301
 801 0.6201    -1.3301
 802 0.6201     1.3301
 257
 803-0.6201    -1.4101
 804-0.6201     1.4101
 805 0.6201    -1.4101
 806 0.6201     1.4101
 258
 807-0.6201    -1.4301
 808-0.6201     1.4301
 809 0.6201    -1.4301
 810 0.6201     1.4301
 259
 811-0.6201    -1.5101
 812-0.6201     1.5101
 813 0.6201    -1.5101
 814 0.6201     1.5101
 260
 815-0.6201    -1.5301
 816-0.6201     1.5301
 817 0.6201    -1.5301
 818 0.6201     1.5301
 261
 819-0.6201    -1.6101
 820-0.6201     1.6101
 821 0.6201    -1.6101
 822 0.6201     1.6101
 262
 823-0.6201    -1.6301
 824-0.6201     1.6301
 825 0.6201    -1.6301
 826 0.6201     1.6301
 263
 827-0.6201    -1.7101
 828-0.6201     1.7101
 829 0.6201    -1.7101
 830 0.6201     1.7101
 264
 831-0.6201    -1.7301
 832-0.6201     1.7301
 833 0.6201    -1.7301
 834 0.6201     1.7301
 265
 835-0.4301    -0.5401
 836-0.4301     0.5401
 837 0.4301    -0.5401
 838 0.4301     0.5401
 266
 839-0.4301    -0.6401
 840-0.4301     0.6401
 841 0.4301    -0.6401
 842 0.4301     0.6401
 267
 843-0.4301    -0.7201
 844-0.4301     0.7201
 845 0.4301    -0.7201
 846 0.4301     0.7201
 268
 847-0.4301    -0.7401
 848-0.4301     0.7401
 849 0.4301    -0.7401
 850 0.4301     0.7401
 269
 851-0.4301     0.8001
 852 0.4301     0.8001
 270
 853-0.4301    -0.8201
 854-0.4301     0.8201
 855 0.4301    -0.8201
 856 0.4301     0.8201
 271
 857-0.4301    -0.8401
 858-0.4301     0.8401
 859 0.4301    -0.8401
 860 0.4301     0.8401
 272
 861-0.4301     0.9001
 862 0.4301     0.9001
 273
 863-0.4301    -0.9201
 864-0.4301     0.9201
 865 0.4301    -0.9201
 866 0.4301     0.9201
 274
 867-0.4301    -0.9401
 868-0.4301     0.9401
 869 0.4301    -0.9401
 870 0.4301     0.9401
 275
 871-0.4301     1.0001
 872 0.4301     1.0001
 276
 873-0.4301    -1.0201
 874-0.4301     1.0201
 875 0.4301    -1.0201
 876 0.4301     1.0201
 277
 877-0.4301    -1.0401
 878-0.4301     1.0401
 879 0.4301    -1.0401
 880 0.4301     1.0401
 278
 881-0.4301     1.1001
 882 0.4301     1.1001
 279
 883-0.4301    -1.1201
 884-0.4301     1.1201
 885 0.4301    -1.1201
 886 0.4301     1.1201
 280
 887-0.4301    -1.1401
 888-0.4301     1.1401
 889 0.4301    -1.1401
 890 0.4301     1.1401
 281
 891-0.4301     1.2001
 892 0.4301     1.2001
 282
 893-0.4301    -1.2201
 894-0.4301     1.2201
 895 0.4301    -1.2201
 896 0.4301     1.2201
 283
 897-0.4301    -1.2401
 898-0.4301     1.2401
 899 0.4301    -1.2401
 900 0.4301     1.2401
 284
 901-0.4301     1.3001
 902 0.4301     1.3001
 285
 903-0.4301    -1.3201
 904-0.4301     1.3201
 905 0.4301    -1.3201
 906 0.4301     1.3201
 286
 907-0.4301    -1.3401
 908-0.4301     1.3401
 909 0.4301    -1.3401
 910 0.4301     1.3401
 287
 911-0.4301     1.4001
 912 0.4301     1.4001
 288
 913-0.4301    -1.4201
 914-0.4301     1.4201
 915 0.4301    -1.4201
 916 0.4301     1.4201
 289
 917-0.4301    -1.4401
 918-0.4301     1.4401
 919 0.4301    -1.4401
 920 0.4301     1.4401
 290
 921-0.4301     1.5001
 922 0.4301     1.5001
 291
 923-0.4301    -1.5201
 924-0.4301     1.5201
 925 0.4301    -1.5201
 926 0.4301     1.5201
 292
 927-0.4301    -1.5401
 928-0.4301     1.5401
 929 0.4301    -1.5401
 930 0.4301     1.5401
 293
 931-0.4301     1.6001
 932 0.4301     1.6001
 294
 933-0.4301    -1.6201
 934-0.4301     1.6201
 935 0.4301    -1.6201
 936 0.4301     1.6201
 295
 937-0.4301    -1.6401
 938-0.4301     1.6401
 939 0.4301    -1.6401
 940 0.4301     1.6401
 296
 941-0.4301     1.7001
 942 0.4301     1.7001
 297
 943-0.4301    -1.7201
 944-0.4301     1.7201
 945 0.4301    -1.7201
 946 0.4301     1.7201
 298
 947-0.4301    -1.7401
 948-0.4301     1.7401
 949 0.4301    -1.7401
 950 0.4301     1.7401
 299
 951-0.5301    -0.5401
 952-0.5301     0.5401
 953 0.5301    -0.5401
 954 0.5301     0.5401
 300
 955-0.5301    -0.6401
 956-0.5301     0.6401
 957 0.5301    -0.6401
 958 0.5301     0.6401
 301
 959-0.5301    -0.7201
 960-0.5301     0.7201
 961 0.5301    -0.7201
 962 0.5301     0.7201
 302
 963-0.5301    -0.7401
 964-0.5301     0.7401
 965 0.5301    -0.7401
 966 0.5301     0.7401
 303
 967-0.5301     0.8001
 968 0.5301     0.8001
 304
 969-0.5301    -0.8201
 970-0.5301     0.8201
 971 0.5301    -0.8201
 972 0.5301     0.8201
 305
 973-0.5301    -0.8401
 974-0.5301     0.8401
 975 0.5301    -0.8401
 976 0.5301     0.8401
 306
 977-0.5301     0.9001
 978 0.5301     0.9001
 307
 979-0.5301    -0.9201
 980-0.5301     0.9201
 981 0.5301    -0.9201
 982 0.5301     0.9201
 308
 983-0.5301    -0.9401
 984-0.5301     0.9401
 985 0.5301    -0.9401
 986 0.5301     0.9401
 309
 987-0.5301     1.0001
 988 0.5301     1.0001
 310
 989-0.5301    -1.0201
 990-0.5301     1.0201
 991 0.5301    -1.0201
 992 0.5301     1.0201
 311
 993-0.5301    -1.0401
 994-0.5301     1.0401
 995 0.5301    -1.0401
 996 0.5301     1.0401
 312
 997-0.5301     1.1001
 998 0.5301     1.1001
 313
 999-0.5301    -1.1201
1000-0.5301     1.1201
1001 0.5301    -1.1201
1002 0.5301     1.1201
 314
1003-0.5301    -1.1401
1004-0.5301     1.1401
1005 0.5301    -1.1401
1006 0.5301     1.1401
 315
1007-0.5301     1.2001
1008 0.5301     1.2001
 316
1009-0.5301    -1.2201
1010-0.5301     1.2201
1011 0.5301    -1.2201
1012 0.5301     1.2201
 317
1013-0.5301    -1.2401
1014-0.5301     1.2401
1015 0.5301    -1.2401
1016 0.5301     1.2401
 318
1017-0.5301     1.3001
1018 0.5301     1.3001
 319
1019-0.5301    -1.3201
1020-0.5301     1.3201
1021 0.5301    -1.3201
1022 0.5301     1.3201
 320
1023-0.5301    -1.3401
1024-0.5301     1.3401
1025 0.5301    -1.3401
1026 0.5301     1.3401
 321
1027-0.5301     1.4001
1028 0.5301     1.4001
 322
1029-0.5301    -1.4201
1030-0.5301     1.4201
1031 0.5301    -1.4201
1032 0.5301     1.4201
 323
1033-0.5301    -1.4401
1034-0.5301     1.4401
1035 0.5301    -1.4401
1036 0.5301     1.4401
 324
1037-0.5301     1.5001
1038 0.5301     1.5001
 325
1039-0.5301    -1.5201
1040-0.5301     1.5201
1041 0.5301    -1.5201
1042 0.5301     1.5201
 326
1043-0.5301    -1.5401
1044-0.5301     1.5401
1045 0.5301    -1.5401
1046 0.5301     1.5401
 327
1047-0.5301     1.6001
1048 0.5301     1.6001
 328
1049-0.5301    -1.6201
1050-0.5301     1.6201
1051 0.5301    -1.6201
1052 0.5301     1.6201
 329
1053-0.5301    -1.6401
1054-0.5301     1.6401
1055 0.5301    -1.6401
1056 0.5301     1.6401
 330
1057-0.5301     1.7001
1058 0.5301     1.7001
 331
1059-0.5301    -1.7201
1060-0.5301     1.7201
1061 0.5301    -1.7201
1062 0.5301     1.7201
 332
1063-0.5301    -1.7401
1064-0.5301     1.7401
1065 0.5301    -1.7401
1066 0.5301     1.7401
 333
1067-0.5401    -0.6301
1068-0.5401     0.6301
1069 0.5401    -0.6301
1070 0.5401     0.6301
 334
1071-0.5401    -0.7301
1072-0.5401     0.7301
1073 0.5401    -0.7301
1074 0.5401     0.7301
 335
1075-0.5401    -0.8101
1076-0.5401     0.8101
1077 0.5401    -0.8101
1078 0.5401     0.8101
 336
1079-0.5401    -0.8301
1080-0.5401     0.8301
1081 0.5401    -0.8301
1082 0.5401     0.8301
 337
1083-0.5401    -0.9101
1084-0.5401     0.9101
1085 0.5401    -0.9101
1086 0.5401     0.9101
 338
1087-0.5401    -0.9301
1088-0.5401     0.9301
1089 0.5401    -0.9301
1090 0.5401     0.9301
 339
1091-0.5401    -1.0101
1092-0.5401     1.0101
1093 0.5401    -1.0101
1094 0.5401     1.0101
 340
1095-0.5401    -1.0301
1096-0.5401     1.0301
1097 0.5401    -1.0301
1098 0.5401     1.0301
 341
1099-0.5401    -1.1101
1100-0.5401     1.1101
1101 0.5401    -1.1101
1102 0.5401     1.1101
 342
1103-0.5401    -1.1301
1104-0.5401     1.1301
1105 0.5401    -1.1301
1106 0.5401     1.1301
 343
1107-0.5401    -1.2101
1108-0.5401     1.2101
1109 0.5401    -1.2101
1110 0.5401     1.2101
 344
1111-0.5401    -1.2301
1112-0.5401     1.2301
1113 0.5401    -1.2301
1114 0.5401     1.2301
 345
1115-0.5401    -1.3101
1116-0.5401     1.3101
1117 0.5401    -1.3101
1118 0.5401     1.3101
 346
1119-0.5401    -1.3301
1120-0.5401     1.3301
1121 0.5401    -1.3301
1122 0.5401     1.3301
 347
1123-0.5401    -1.4101
1124-0.5401     1.4101
1125 0.5401    -1.4101
1126 0.5401     1.4101
 348
1127-0.5401    -1.4301
1128-0.5401     1.4301
1129 0.5401    -1.4301
1130 0.5401     1.4301
 349
1131-0.5401    -1.5101
1132-0.5401     1.5101
1133 0.5401    -1.5101
1134 0.5401     1.5101
 350
1135-0.5401    -1.5301
1136-0.5401     1.5301
1137 0.5401    -1.5301
1138 0.5401     1.5301
 351
1139-0.5401    -1.6101
1140-0.5401     1.6101
1141 0.5401    -1.6101
1142 0.5401     1.6101
 352
1143-0.5401    -1.6301
1144-0.5401     1.6301
1145 0.5401    -1.6301
1146 0.5401     1.6301
 353
1147-0.5401    -1.7101
1148-0.5401     1.7101
1149 0.5401    -1.7101
1150 0.5401     1.7101
 354
1151-0.5401    -1.7301
1152-0.5401     1.7301
1153 0.5401    -1.7301
1154 0.5401     1.7301
 355
1155-0.6301    -0.6401
1156-0.6301     0.6401
1157 0.6301    -0.6401
1158 0.6301     0.6401
 356
1159-0.6301    -0.7201
1160-0.6301     0.7201
1161 0.6301    -0.7201
1162 0.6301     0.7201
 357
1163-0.6301    -0.7401
1164-0.6301     0.7401
1165 0.6301    -0.7401
1166 0.6301     0.7401
 358
1167-0.6301     0.8001
1168 0.6301     0.8001
 359
1169-0.6301    -0.8201
1170-0.6301     0.8201
1171 0.6301    -0.8201
1172 0.6301     0.8201
 360
1173-0.6301    -0.8401
1174-0.6301     0.8401
1175 0.6301    -0.8401
1176 0.6301     0.8401
 361
1177-0.6301     0.9001
1178 0.6301     0.9001
 362
1179-0.6301    -0.9201
1180-0.6301     0.9201
1181 0.6301    -0.9201
1182 0.6301     0.9201
 363
1183-0.6301    -0.9401
1184-0.6301     0.9401
1185 0.6301    -0.9401
1186 0.6301     0.9401
 364
1187-0.6301     1.0001
1188 0.6301     1.0001
 365
1189-0.6301    -1.0201
1190-0.6301     1.0201
1191 0.6301    -1.0201
1192 0.6301     1.0201
 366
1193-0.6301    -1.0401
1194-0.6301     1.0401
1195 0.6301    -1.0401
1196 0.6301     1.0401
 367
1197-0.6301     1.1001
1198 0.6301     1.1001
 368
1199-0.6301    -1.1201
1200-0.6301     1.1201
1201 0.6301    -1.1201
1202 0.6301     1.1201
 369
1203-0.6301    -1.1401
1204-0.6301     1.1401
1205 0.6301    -1.1401
1206 0.6301     1.1401
 370
1207-0.6301     1.2001
1208 0.6301     1.2001
 371
1209-0.6301    -1.2201
1210-0.6301     1.2201
1211 0.6301    -1.2201
1212 0.6301     1.2201
 372
1213-0.6301    -1.2401
1214-0.6301     1.2401
1215 0.6301    -1.2401
1216 0.6301     1.2401
 373
1217-0.6301     1.3001
1218 0.6301     1.3001
 374
1219-0.6301    -1.3201
1220-0.6301     1.3201
1221 0.6301    -1.3201
1222 0.6301     1.3201
 375
1223-0.6301    -1.3401
1224-0.6301     1.3401
1225 0.6301    -1.3401
1226 0.6301     1.3401
 376
1227-0.6301     1.4001
1228 0.6301     1.4001
 377
1229-0.6301    -1.4201
1230-0.6301     1.4201
1231 0.6301    -1.4201
1232 0.6301     1.4201
 378
1233-0.6301    -1.4401
1234-0.6301     1.4401
1235 0.6301    -1.4401
1236 0.6301     1.4401
 379
1237-0.6301     1.5001
1238 0.6301     1.5001
 380
1239-0.6301    -1.5201
1240-0.6301     1.5201
1241 0.6301    -1.5201
1242 0.6301     1.5201
 381
1243-0.6301    -1.5401
1244-0.6301     1.5401
1245 0.6301    -1.5401
1246 0.6301     1.5401
 382
1247-0.6301     1.6001
1248 0.6301     1.6001
 383
1249-0.6301    -1.6201
1250-0.6301     1.6201
1251 0.6301    -1.6201
1252 0.6301     1.6201
 384
1253-0.6301    -1.6401
1254-0.6301     1.6401
1255 0.6301    -1.6401
1256 0.6301     1.6401
 385
1257-0.6301     1.7001
1258 0.6301     1.7001
 386
1259-0.6301    -1.7201
1260-0.6301     1.7201
1261 0.6301    -1.7201
1262 0.6301     1.7201
 387
1263-0.6301    -1.7401
1264-0.6301     1.7401
1265 0.6301    -1.7401
1266 0.6301     1.7401
 388
1267-0.6401    -0.7301
1268-0.6401     0.7301
1269 0.6401    -0.7301
1270 0.6401     0.7301
 389
1271-0.6401    -0.8101
1272-0.6401     0.8101
1273 0.6401    -0.8101
1274 0.6401     0.8101
 390
1275-0.6401    -0.8301
1276-0.6401     0.8301
1277 0.6401    -0.8301
1278 0.6401     0.8301
 391
1279-0.6401    -0.9101
1280-0.6401     0.9101
1281 0.6401    -0.9101
1282 0.6401     0.9101
 392
1283-0.6401    -0.9301
1284-0.6401     0.9301
1285 0.6401    -0.9301
1286 0.6401     0.9301
 393
1287-0.6401    -1.0101
1288-0.6401     1.0101
1289 0.6401    -1.0101
1290 0.6401     1.0101
 394
1291-0.6401    -1.0301
1292-0.6401     1.0301
1293 0.6401    -1.0301
1294 0.6401     1.0301
 395
1295-0.6401    -1.1101
1296-0.6401     1.1101
1297 0.6401    -1.1101
1298 0.6401     1.1101
 396
1299-0.6401    -1.1301
1300-0.6401     1.1301
1301 0.6401    -1.1301
1302 0.6401     1.1301
 397
1303-0.6401    -1.2101
1304-0.6401     1.2101
1305 0.6401    -1.2101
1306 0.6401     1.2101
 398
1307-0.6401    -1.2301
1308-0.6401     1.2301
1309 0.6401    -1.2301
1310 0.6401     1.2301
 399
1311-0.6401    -1.3101
1312-0.6401     1.3101
1313 0.6401    -1.3101
1314 0.6401     1.3101
 400
1315-0.6401    -1.3301
1316-0.6401     1.3301
1317 0.6401    -1.3301
1318 0.6401     1.3301
 401
1319-0.6401    -1.4101
1320-0.6401     1.4101
1321 0.6401    -1.4101
1322 0.6401     1.4101
 402
1323-0.6401    -1.4301
1324-0.6401     1.4301
1325 0.6401    -1.4301
1326 0.6401     1.4301
 403
1327-0.6401    -1.5101
1328-0.6401     1.5101
1329 0.6401    -1.5101
1330 0.6401     1.5101
 404
1331-0.6401    -1.5301
1332-0.6401     1.5301
1333 0.6401    -1.5301
1334 0.6401     1.5301
 405
1335-0.6401    -1.6101
1336-0.6401     1.6101
1337 0.6401    -1.6101
1338 0.6401     1.6101
 406
1339-0.6401    -1.6301
1340-0.6401     1.6301
1341 0.6401    -1.6301
1342 0.6401     1.6301
 407
1343-0.6401    -1.7101
1344-0.6401     1.7101
1345 0.6401    -1.7101
1346 0.6401     1.7101
 408
1347-0.6401    -1.7301
1348-0.6401     1.7301
1349 0.6401    -1.7301
1350 0.6401     1.7301
 409
1351-0.7201    -0.7301
1352-0.7201     0.7301
1353 0.7201    -0.7301
1354 0.7201     0.7301
 410
1355-0.7201    -0.8101
1356-0.7201     0.8101
1357 0.7201    -0.8101
1358 0.7201     0.8101
 411
1359-0.7201    -0.8301
1360-0.7201     0.8301
1361 0.7201    -0.8301
1362 0.7201     0.8301
 412
1363-0.7201    -0.9101
1364-0.7201     0.9101
1365 0.7201    -0.9101
1366 0.7201     0.9101
 413
1367-0.7201    -0.9301
1368-0.7201     0.9301
1369 0.7201    -0.9301
1370 0.7201     0.9301
 414
1371-0.7201    -1.0101
1372-0.7201     1.0101
1373 0.7201    -1.0101
1374 0.7201     1.0101
 415
1375-0.7201    -1.0301
1376-0.7201     1.0301
1377 0.7201    -1.0301
1378 0.7201     1.0301
 416
1379-0.7201    -1.1101
1380-0.7201     1.1101
1381 0.7201    -1.1101
1382 0.7201     1.1101
 417
1383-0.7201    -1.1301
1384-0.7201     1.1301
1385 0.7201    -1.1301
1386 0.7201     1.1301
 418
1387-0.7201    -1.2101
1388-0.7201     1.2101
1389 0.7201    -1.2101
1390 0.7201     1.2101
 419
1391-0.7201    -1.2301
1392-0.7201     1.2301
1393 0.7201    -1.2301
1394 0.7201     1.2301
 420
1395-0.7201    -1.3101
1396-0.7201     1.3101
1397 0.7201    -1.3101
1398 0.7201     1.3101
 421
1399-0.7201    -1.3301
1400-0.7201     1.3301
1401 0.7201    -1.3301
1402 0.7201     1.3301
 422
1403-0.7201    -1.4101
1404-0.7201     1.4101
1405 0.7201    -1.4101
1406 0.7201     1.4101
 423
1407-0.7201    -1.4301
1408-0.7201     1.4301
1409 0.7201    -1.4301
1410 0.7201     1.4301
 424
1411-0.7201    -1.5101
1412-0.7201     1.5101
1413 0.7201    -1.5101
1414 0.7201     1.5101
 425
1415-0.7201    -1.5301
1416-0.7201     1.5301
1417 0.7201    -1.5301
1418 0.7201     1.5301
 426
1419-0.7201    -1.6101
1420-0.7201     1.6101
1421 0.7201    -1.6101
1422 0.7201     1.6101
 427
1423-0.7201    -1.6301
1424-0.7201     1.6301
1425 0.7201    -1.6301
1426 0.7201     1.6301
 428
1427-0.7201    -1.7101
1428-0.7201     1.7101
1429 0.7201    -1.7101
1430 0.7201     1.7101
 429
1431-0.7201    -1.7301
1432-0.7201     1.7301
1433 0.7201    -1.7301
1434 0.7201     1.7301
 430
1435-0.7301    -0.7401
1436-0.7301     0.7401
1437 0.7301    -0.7401
1438 0.7301     0.7401
 431
1439-0.7301     0.8001
1440 0.7301     0.8001
 432
1441-0.7301    -0.8201
1442-0.7301     0.8201
1443 0.7301    -0.8201
1444 0.7301     0.8201
 433
1445-0.7301    -0.8401
1446-0.7301     0.8401
1447 0.7301    -0.8401
1448 0.7301     0.8401
 434
1449-0.7301     0.9001
1450 0.7301     0.9001
 435
1451-0.7301    -0.9201
1452-0.7301     0.9201
1453 0.7301    -0.9201
1454 0.7301     0.9201
 436
1455-0.7301    -0.9401
1456-0.7301     0.9401
1457 0.7301    -0.9401
1458 0.7301     0.9401
 437
1459-0.7301     1.0001
1460 0.7301     1.0001
 438
1461-0.7301    -1.0201
1462-0.7301     1.0201
1463 0.7301    -1.0201
1464 0.7301     1.0201
 439
1465-0.7301    -1.0401
1466-0.7301     1.0401
1467 0.7301    -1.0401
1468 0.7301     1.0401
 440
1469-0.7301     1.1001
1470 0.7301     1.1001
 441
1471-0.7301    -1.1201
1472-0.7301     1.1201
1473 0.7301    -1.1201
1474 0.7301     1.1201
 442
1475-0.7301    -1.1401
1476-0.7301     1.1401
1477 0.7301    -1.1401
1478 0.7301     1.1401
 443
1479-0.7301     1.2001
1480 0.7301     1.2001
 444
1481-0.7301    -1.2201
1482-0.7301     1.2201
1483 0.7301    -1.2201
1484 0.7301     1.2201
 445
1485-0.7301    -1.2401
1486-0.7301     1.2401
1487 0.7301    -1.2401
1488 0.7301     1.2401
 446
1489-0.7301     1.3001
1490 0.7301     1.3001
 447
1491-0.7301    -1.3201
1492-0.7301     1.3201
1493 0.7301    -1.3201
1494 0.7301     1.3201
 448
1495-0.7301    -1.3401
1496-0.7301     1.3401
1497 0.7301    -1.3401
1498 0.7301     1.3401
 449
1499-0.7301     1.4001
1500 0.7301     1.4001
 450
1501-0.7301    -1.4201
1502-0.7301     1.4201
1503 0.7301    -1.4201
1504 0.7301     1.4201
 451
1505-0.7301    -1.4401
1506-0.7301     1.4401
1507 0.7301    -1.4401
1508 0.7301     1.4401
 452
1509-0.7301     1.5001
1510 0.7301     1.5001
 453
1511-0.7301    -1.5201
1512-0.7301     1.5201
1513 0.7301    -1.5201
1514 0.7301     1.5201
 454
1515-0.7301    -1.5401
1516-0.7301     1.5401
1517 0.7301    -1.5401
1518 0.7301     1.5401
 455
1519-0.7301     1.6001
1520 0.7301     1.6001
 456
1521-0.7301    -1.6201
1522-0.7301     1.6201
1523 0.7301    -1.6201
1524 0.7301     1.6201
 457
1525-0.7301    -1.6401
1526-0.7301     1.6401
1527 0.7301    -1.6401
1528 0.7301     1.6401
 458
1529-0.7301     1.7001
1530 0.7301     1.7001
 459
1531-0.7301    -1.7201
1532-0.7301     1.7201
1533 0.7301    -1.7201
1534 0.7301     1.7201
 460
1535-0.7301    -1.7401
1536-0.7301     1.7401
1537 0.7301    -1.7401
1538 0.7301     1.7401
 461
1539-0.7401    -0.8101
1540-0.7401     0.8101
1541 0.7401    -0.8101
1542 0.7401     0.8101
 462
1543-0.7401    -0.8301
1544-0.7401     0.8301
1545 0.7401    -0.8301
1546 0.7401     0.8301
 463
1547-0.7401    -0.9101
1548-0.7401     0.9101
1549 0.7401    -0.9101
1550 0.7401     0.9101
 464
1551-0.7401    -0.9301
1552-0.7401     0.9301
1553 0.7401    -0.9301
1554 0.7401     0.9301
 465
1555-0.7401    -1.0101
1556-0.7401     1.0101
1557 0.7401    -1.0101
1558 0.7401     1.0101
 466
1559-0.7401    -1.0301
1560-0.7401     1.0301
1561 0.7401    -1.0301
1562 0.7401     1.0301
 467
1563-0.7401    -1.1101
1564-0.7401     1.1101
1565 0.7401    -1.1101
1566 0.7401     1.1101
 468
1567-0.7401    -1.1301
1568-0.7401     1.1301
1569 0.7401    -1.1301
1570 0.7401     1.1301
 469
1571-0.7401    -1.2101
1572-0.7401     1.2101
1573 0.7401    -1.2101
1574 0.7401     1.2101
 470
1575-0.7401    -1.2301
1576-0.7401     1.2301
1577 0.7401    -1.2301
1578 0.7401     1.2301
 471
1579-0.7401    -1.3101
1580-0.7401     1.3101
1581 0.7401    -1.3101
1582 0.7401     1.3101
 472
1583-0.7401    -1.3301
1584-0.7401     1.3301
1585 0.7401    -1.3301
1586 0.7401     1.3301
 473
1587-0.7401    -1.4101
1588-0.7401     1.4101
1589 0.7401    -1.4101
1590 0.7401     1.4101
 474
1591-0.7401    -1.4301
1592-0.7401     1.4301
1593 0.7401    -1.4301
1594 0.7401     1.4301
 475
1595-0.7401    -1.5101
1596-0.7401     1.5101
1597 0.7401    -1.5101
1598 0.7401     1.5101
 476
1599-0.7401    -1.5301
1600-0.7401     1.5301
1601 0.7401    -1.5301
1602 0.7401     1.5301
 477
1603-0.7401    -1.6101
1604-0.7401     1.6101
1605 0.7401    -1.6101
1606 0.7401     1.6101
 478
1607-0.7401    -1.6301
1608-0.7401     1.6301
1609 0.7401    -1.6301
1610 0.7401     1.6301
 479
1611-0.7401    -1.7101
1612-0.7401     1.7101
1613 0.7401    -1.7101
1614 0.7401     1.7101
 480
1615-0.7401    -1.7301
1616-0.7401     1.7301
1617 0.7401    -1.7301
1618 0.7401     1.7301
 481
1619 0.8001    -0.8101
1620 0.8001     0.8101
 482
1621 0.8001    -0.8301
1622 0.8001     0.8301
 483
1623 0.8001    -0.9101
1624 0.8001     0.9101
 484
1625 0.8001    -0.9301
1626 0.8001     0.9301
 485
1627 0.8001    -1.0101
1628 0.8001     1.0101
 486
1629 0.8001    -1.0301
1630 0.8001     1.0301
 487
1631 0.8001    -1.1101
1632 0.8001     1.1101
 488
1633 0.8001    -1.1301
1634 0.8001     1.1301
 489
1635 0.8001    -1.2101
1636 0.8001     1.2101
 490
1637 0.8001    -1.2301
1638 0.8001     1.2301
 491
1639 0.8001    -1.3101
1640 0.8001     1.3101
 492
1641 0.8001    -1.3301
1642 0.8001     1.3301
 493
1643 0.8001    -1.4101
1644 0.8001     1.4101
 494
1645 0.8001    -1.4301
1646 0.8001     1.4301
 495
1647 0.8001    -1.5101
1648 0.8001     1.5101
 496
1649 0.8001    -1.5301
1650 0.8001     1.5301
 497
1651 0.8001    -1.6101
1652 0.8001     1.6101
 498
1653 0.8001    -1.6301
1654 0.8001     1.6301
 499
1655 0.8001    -1.7101
1656 0.8001     1.7101
 500
1657 0.8001    -1.7301
1658 0.8001     1.7301
 501
1659-0.8101    -0.8201
1660-0.8101     0.8201
1661 0.8101    -0.8201
1662 0.8101     0.8201
 502
1663-0.8101    -0.8401
1664-0.8101     0.8401
1665 0.8101    -0.8401
1666 0.8101     0.8401
 503
1667-0.8101     0.9001
1668 0.8101     0.9001
 504
1669-0.8101    -0.9201
1670-0.8101     0.9201
1671 0.8101    -0.9201
1672 0.8101     0.9201
 505
1673-0.8101    -0.9401
1674-0.8101     0.9401
1675 0.8101    -0.9401
1676 0.8101     0.9401
 506
1677-0.8101     1.0001
1678 0.8101     1.0001
 507
1679-0.8101    -1.0201
1680-0.8101     1.0201
1681 0.8101    -1.0201
1682 0.8101     1.0201
 508
1683-0.8101    -1.0401
1684-0.8101     1.0401
1685 0.8101    -1.0401
1686 0.8101     1.0401
 509
1687-0.8101     1.1001
1688 0.8101     1.1001
 510
1689-0.8101    -1.1201
1690-0.8101     1.1201
1691 0.8101    -1.1201
1692 0.8101     1.1201
 511
1693-0.8101    -1.1401
1694-0.8101     1.1401
1695 0.8101    -1.1401
1696 0.8101     1.1401
 512
1697-0.8101     1.2001
1698 0.8101     1.2001
 513
1699-0.8101    -1.2201
1700-0.8101     1.2201
1701 0.8101    -1.2201
1702 0.8101     1.2201
 514
1703-0.8101    -1.2401
1704-0.8101     1.2401
1705 0.8101    -1.2401
1706 0.8101     1.2401
 515
1707-0.8101     1.3001
1708 0.8101     1.3001
 516
1709-0.8101    -1.3201
1710-0.8101     1.3201
1711 0.8101    -1.3201
1712 0.8101     1.3201
 517
1713-0.8101    -1.3401
1714-0.8101     1.3401
1715 0.8101    -1.3401
1716 0.8101     1.3401
 518
1717-0.8101     1.4001
1718 0.8101     1.4001
 519
1719-0.8101    -1.4201
1720-0.8101     1.4201
1721 0.8101    -1.4201
1722 0.8101     1.4201
 520
1723-0.8101    -1.4401
1724-0.8101     1.4401
1725 0.8101    -1.4401
1726 0.8101     1.4401
 521
1727-0.8101     1.5001
1728 0.8101     1.5001
 522
1729-0.8101    -1.5201
1730-0.8101     1.5201
1731 0.8101    -1.5201
1732 0.8101     1.5201
 523
1733-0.8101    -1.5401
1734-0.8101     1.5401
1735 0.8101    -1.5401
1736 0.8101     1.5401
 524
1737-0.8101     1.6001
1738 0.8101     1.6001
 525
1739-0.8101    -1.6201
1740-0.8101     1.6201
1741 0.8101    -1.6201
1742 0.8101     1.6201
 526
1743-0.8101    -1.6401
1744-0.8101     1.6401
1745 0.8101    -1.6401
1746 0.8101     1.6401
 527
1747-0.8101     1.7001
1748 0.8101     1.7001
 528
1749-0.8101    -1.7201
1750-0.8101     1.7201
1751 0.8101    -1.7201
1752 0.8101     1.7201
 529
1753-0.8101    -1.7401
1754-0.8101     1.7401
1755 0.8101    -1.7401
1756 0.8101     1.7401
 530
1757-0.8201    -0.8301
1758-0.8201     0.8301
1759 0.8201    -0.8301
1760 0.8201     0.8301
 531
1761-0.8201    -0.9101
1762-0.8201     0.9101
1763 0.8201    -0.9101
1764 0.8201     0.9101
 532
1765-0.8201    -0.9301
1766-0.8201     0.9301
1767 0.8201    -0.9301
1768 0.8201     0.9301
 533
1769-0.8201    -1.0101
1770-0.8201     1.0101
1771 0.8201    -1.0101
1772 0.8201     1.0101
 534
1773-0.8201    -1.0301
1774-0.8201     1.0301
1775 0.8201    -1.0301
1776 0.8201     1.0301
 535
1777-0.8201    -1.1101
1778-0.8201     1.1101
1779 0.8201    -1.1101
1780 0.8201     1.1101
 536
1781-0.8201    -1.1301
1782-0.8201     1.1301
1783 0.8201    -1.1301
1784 0.8201     1.1301
 537
1785-0.8201    -1.2101
1786-0.8201     1.2101
1787 0.8201    -1.2101
1788 0.8201     1.2101
 538
1789-0.8201    -1.2301
1790-0.8201     1.2301
1791 0.8201    -1.2301
1792 0.8201     1.2301
 539
1793-0.8201    -1.3101
1794-0.8201     1.3101
1795 0.8201    -1.3101
1796 0.8201     1.3101
 540
1797-0.8201    -1.3301
1798-0.8201     1.3301
1799 0.8201    -1.3301
1800 0.8201     1.3301
 541
1801-0.8201    -1.4101
1802-0.8201     1.4101
1803 0.8201    -1.4101
1804 0.8201     1.4101
 542
1805-0.8201    -1.4301
1806-0.8201     1.4301
1807 0.8201    -1.4301
1808 0.8201     1.4301
 543
1809-0.8201    -1.5101
1810-0.8201     1.5101
1811 0.8201    -1.5101
1812 0.8201     1.5101
 544
1813-0.8201    -1.5301
1814-0.8201     1.5301
1815 0.8201    -1.5301
1816 0.8201     1.5301
 545
1817-0.8201    -1.6101
1818-0.8201     1.6101
1819 0.8201    -1.6101
1820 0.8201     1.6101
 546
1821-0.8201    -1.6301
1822-0.8201     1.6301
1823 0.8201    -1.6301
1824 0.8201     1.6301
 547
1825-0.8201    -1.7101
1826-0.8201     1.7101
1827 0.8201    -1.7101
1828 0.8201     1.7101
 548
1829-0.8201    -1.7301
1830-0.8201     1.7301
1831 0.8201    -1.7301
1832 0.8201     1.7301
 549
1833-0.8301    -0.8401
1834-0.8301     0.8401
1835 0.8301    -0.8401
1836 0.8301     0.8401
 550
1837-0.8301     0.9001
1838 0.8301     0.9001
 551
1839-0.8301    -0.9201
1840-0.8301     0.9201
1841 0.8301    -0.9201
1842 0.8301     0.9201
 552
1843-0.8301    -0.9401
1844-0.8301     0.9401
1845 0.8301    -0.9401
1846 0.8301     0.9401
 553
1847-0.8301     1.0001
1848 0.8301     1.0001
 554
1849-0.8301    -1.0201
1850-0.8301     1.0201
1851 0.8301    -1.0201
1852 0.8301     1.0201
 555
1853-0.8301    -1.0401
1854-0.8301     1.0401
1855 0.8301    -1.0401
1856 0.8301     1.0401
 556
1857-0.8301     1.1001
1858 0.8301     1.1001
 557
1859-0.8301    -1.1201
1860-0.8301     1.1201
1861 0.8301    -1.1201
1862 0.8301     1.1201
 558
1863-0.8301    -1.1401
1864-0.8301     1.1401
1865 0.8301    -1.1401
1866 0.8301     1.1401
 559
1867-0.8301     1.2001
1868 0.8301     1.2001
 560
1869-0.8301    -1.2201
1870-0.8301     1.2201
1871 0.8301    -1.2201
1872 0.8301     1.2201
 561
1873-0.8301    -1.2401
1874-0.8301     1.2401
1875 0.8301    -1.2401
1876 0.8301     1.2401
 562
1877-0.8301     1.3001
1878 0.8301     1.3001
 563
1879-0.8301    -1.3201
1880-0.8301     1.3201
1881 0.8301    -1.3201
1882 0.8301     1.3201
 564
1883-0.8301    -1.3401
1884-0.8301     1.3401
1885 0.8301    -1.3401
1886 0.8301     1.3401
 565
1887-0.8301     1.4001
1888 0.8301     1.4001
 566
1889-0.8301    -1.4201
1890-0.8301     1.4201
1891 0.8301    -1.4201
1892 0.8301     1.4201
 567
1893-0.8301    -1.4401
1894-0.8301     1.4401
1895 0.8301    -1.4401
1896 0.8301     1.4401
 568
1897-0.8301     1.5001
1898 0.8301     1.5001
 569
1899-0.8301    -1.5201
1900-0.8301     1.5201
1901 0.8301    -1.5201
1902 0.8301     1.5201
 570
1903-0.8301    -1.5401
1904-0.8301     1.5401
1905 0.8301    -1.5401
1906 0.8301     1.5401
 571
1907-0.8301     1.6001
1908 0.8301     1.6001
 572
1909-0.8301    -1.6201
1910-0.8301     1.6201
1911 0.8301    -1.6201
1912 0.8301     1.6201
 573
1913-0.8301    -1.6401
1914-0.8301     1.6401
1915 0.8301    -1.6401
1916 0.8301     1.6401
 574
1917-0.8301     1.7001
1918 0.8301     1.7001
 575
1919-0.8301    -1.7201
1920-0.8301     1.7201
1921 0.8301    -1.7201
1922 0.8301     1.7201
 576
1923-0.8301    -1.7401
1924-0.8301     1.7401
1925 0.8301    -1.7401
1926 0.8301     1.7401
 577
1927-0.8401    -0.9101
1928-0.8401     0.9101
1929 0.8401    -0.9101
1930 0.8401     0.9101
 578
1931-0.8401    -0.9301
1932-0.8401     0.9301
1933 0.8401    -0.9301
1934 0.8401     0.9301
 579
1935-0.8401    -1.0101
1936-0.8401     1.0101
1937 0.8401    -1.0101
1938 0.8401     1.0101
 580
1939-0.8401    -1.0301
1940-0.8401     1.0301
1941 0.8401    -1.0301
1942 0.8401     1.0301
 581
1943-0.8401    -1.1101
1944-0.8401     1.1101
1945 0.8401    -1.1101
1946 0.8401     1.1101
 582
1947-0.8401    -1.1301
1948-0.8401     1.1301
1949 0.8401    -1.1301
1950 0.8401     1.1301
 583
1951-0.8401    -1.2101
1952-0.8401     1.2101
1953 0.8401    -1.2101
1954 0.8401     1.2101
 584
1955-0.8401    -1.2301
1956-0.8401     1.2301
1957 0.8401    -1.2301
1958 0.8401     1.2301
 585
1959-0.8401    -1.3101
1960-0.8401     1.3101
1961 0.8401    -1.3101
1962 0.8401     1.3101
 586
1963-0.8401    -1.3301
1964-0.8401     1.3301
1965 0.8401    -1.3301
1966 0.8401     1.3301
 587
1967-0.8401    -1.4101
1968-0.8401     1.4101
1969 0.8401    -1.4101
1970 0.8401     1.4101
 588
1971-0.8401    -1.4301
1972-0.8401     1.4301
1973 0.8401    -1.4301
1974 0.8401     1.4301
 589
1975-0.8401    -1.5101
1976-0.8401     1.5101
1977 0.8401    -1.5101
1978 0.8401     1.5101
 590
1979-0.8401    -1.5301
1980-0.8401     1.5301
1981 0.8401    -1.5301
1982 0.8401     1.5301
 591
1983-0.8401    -1.6101
1984-0.8401     1.6101
1985 0.8401    -1.6101
1986 0.8401     1.6101
 592
1987-0.8401    -1.6301
1988-0.8401     1.6301
1989 0.8401    -1.6301
1990 0.8401     1.6301
 593
1991-0.8401    -1.7101
1992-0.8401     1.7101
1993 0.8401    -1.7101
1994 0.8401     1.7101
 594
1995-0.8401    -1.7301
1996-0.8401     1.7301
1997 0.8401    -1.7301
1998 0.8401     1.7301
 595
1999 0.9001    -0.9101
2000 0.9001     0.9101
 596
2001 0.9001    -0.9301
2002 0.9001     0.9301
 597
2003 0.9001    -1.0101
2004 0.9001     1.0101
 598
2005 0.9001    -1.0301
2006 0.9001     1.0301
 599
2007 0.9001    -1.1101
2008 0.9001     1.1101
 600
2009 0.9001    -1.1301
2010 0.9001     1.1301
 601
2011 0.9001    -1.2101
2012 0.9001     1.2101
 602
2013 0.9001    -1.2301
2014 0.9001     1.2301
 603
2015 0.9001    -1.3101
2016 0.9001     1.3101
 604
2017 0.9001    -1.3301
2018 0.9001     1.3301
 605
2019 0.9001    -1.4101
2020 0.9001     1.4101
 606
2021 0.9001    -1.4301
2022 0.9001     1.4301
 607
2023 0.9001    -1.5101
2024 0.9001     1.5101
 608
2025 0.9001    -1.5301
2026 0.9001     1.5301
 609
2027 0.9001    -1.6101
2028 0.9001     1.6101
 610
2029 0.9001    -1.6301
2030 0.9001     1.6301
 611
2031 0.9001    -1.7101
2032 0.9001     1.7101
 612
2033 0.9001    -1.7301
2034 0.9001     1.7301
 613
2035-0.9101    -0.9201
2036-0.9101     0.9201
2037 0.9101    -0.9201
2038 0.9101     0.9201
 614
2039-0.9101    -0.9401
2040-0.9101     0.9401
2041 0.9101    -0.9401
2042 0.9101     0.9401
 615
2043-0.9101     1.0001
2044 0.9101     1.0001
 616
2045-0.9101    -1.0201
2046-0.9101     1.0201
2047 0.9101    -1.0201
2048 0.9101     1.0201
 617
2049-0.9101    -1.0401
2050-0.9101     1.0401
2051 0.9101    -1.0401
2052 0.9101     1.0401
 618
2053-0.9101     1.1001
2054 0.9101     1.1001
 619
2055-0.9101    -1.1201
2056-0.9101     1.1201
2057 0.9101    -1.1201
2058 0.9101     1.1201
 620
2059-0.9101    -1.1401
2060-0.9101     1.1401
2061 0.9101    -1.1401
2062 0.9101     1.1401
 621
2063-0.9101     1.2001
2064 0.9101     1.2001
 622
2065-0.9101    -1.2201
2066-0.9101     1.2201
2067 0.9101    -1.2201
2068 0.9101     1.2201
 623
2069-0.9101    -1.2401
2070-0.9101     1.2401
2071 0.9101    -1.2401
2072 0.9101     1.2401
 624
2073-0.9101     1.3001
2074 0.9101     1.3001
 625
2075-0.9101    -1.3201
2076-0.9101     1.3201
2077 0.9101    -1.3201
2078 0.9101     1.3201
 626
2079-0.9101    -1.3401
2080-0.9101     1.3401
2081 0.9101    -1.3401
2082 0.9101     1.3401
 627
2083-0.9101     1.4001
2084 0.9101     1.4001
 628
2085-0.9101    -1.4201
2086-0.9101     1.4201
2087 0.9101    -1.4201
2088 0.9101     1.4201
 629
2089-0.9101    -1.4401
2090-0.9101     1.4401
2091 0.9101    -1.4401
2092 0.9101     1.4401
 630
2093-0.9101     1.5001
2094 0.9101     1.5001
 631
2095-0.9101    -1.5201
2096-0.9101     1.5201
2097 0.9101    -1.5201
2098 0.9101     1.5201
 632
2099-0.9101    -1.5401
2100-0.9101     1.5401
2101 0.9101    -1.5401
2102 0.9101     1.5401
 633
2103-0.9101     1.6001
2104 0.9101     1.6001
 634
2105-0.9101    -1.6201
2106-0.9101     1.6201
2107 0.9101    -1.6201
2108 0.9101     1.6201
 635
2109-0.9101    -1.6401
2110-0.9101     1.6401
2111 0.9101    -1.6401
2112 0.9101     1.6401
 636
2113-0.9101     1.7001
2114 0.9101     1.7001
 637
2115-0.9101    -1.7201
2116-0.9101     1.7201
2117 0.9101    -1.7201
2118 0.9101     1.7201
 638
2119-0.9101    -1.7401
2120-0.9101     1.7401
2121 0.9101    -1.7401
2122 0.9101     1.7401
 639
2123-0.9201    -0.9301
2124-0.9201     0.9301
2125 0.9201    -0.9301
2126 0.9201     0.9301
 640
2127-0.9201    -1.0101
2128-0.9201     1.0101
2129 0.9201    -1.0101
2130 0.9201     1.0101
 641
2131-0.9201    -1.0301
2132-0.9201     1.0301
2133 0.9201    -1.0301
2134 0.9201     1.0301
 642
2135-0.9201    -1.1101
2136-0.9201     1.1101
2137 0.9201    -1.1101
2138 0.9201     1.1101
 643
2139-0.9201    -1.1301
2140-0.9201     1.1301
2141 0.9201    -1.1301
2142 0.9201     1.1301
 644
2143-0.9201    -1.2101
2144-0.9201     1.2101
2145 0.9201    -1.2101
2146 0.9201     1.2101
 645
2147-0.9201    -1.2301
2148-0.9201     1.2301
2149 0.9201    -1.2301
2150 0.9201     1.2301
 646
2151-0.9201    -1.3101
2152-0.9201     1.3101
2153 0.9201    -1.3101
2154 0.9201     1.3101
 647
2155-0.9201    -1.3301
2156-0.9201     1.3301
2157 0.9201    -1.3301
2158 0.9201     1.3301
 648
2159-0.9201    -1.4101
2160-0.9201     1.4101
2161 0.9201    -1.4101
2162 0.9201     1.4101
 649
2163-0.9201    -1.4301
2164-0.9201     1.4301
2165 0.9201    -1.4301
2166 0.9201     1.4301
 650
2167-0.9201    -1.5101
2168-0.9201     1.5101
2169 0.9201    -1.5101
2170 0.9201     1.5101
 651
2171-0.9201    -1.5301
2172-0.9201     1.5301
2173 0.9201    -1.5301
2174 0.9201     1.5301
 652
2175-0.9201    -1.6101
2176-0.9201     1.6101
2177 0.9201    -1.6101
2178 0.9201     1.6101
 653
2179-0.9201    -1.6301
2180-0.9201     1.6301
2181 0.9201    -1.6301
2182 0.9201     1.6301
 654
2183-0.9201    -1.7101
2184-0.9201     1.7101
2185 0.9201    -1.7101
2186 0.9201     1.7101
 655
2187-0.9201    -1.7301
2188-0.9201     1.7301
2189 0.9201    -1.7301
2190 0.9201     1.7301
 656
2191-0.9301    -0.9401
2192-0.9301     0.9401
2193 0.9301    -0.9401
2194 0.9301     0.9401
 657
2195-0.9301     1.0001
2196 0.9301     1.0001
 658
2197-0.9301    -1.0201
2198-0.9301     1.0201
2199 0.9301    -1.0201
2200 0.9301     1.0201
 659
2201-0.9301    -1.0401
2202-0.9301     1.0401
2203 0.9301    -1.0401
2204 0.9301     1.0401
 660
2205-0.9301     1.1001
2206 0.9301     1.1001
 661
2207-0.9301    -1.1201
2208-0.9301     1.1201
2209 0.9301    -1.1201
2210 0.9301     1.1201
 662
2211-0.9301    -1.1401
2212-0.9301     1.1401
2213 0.9301    -1.1401
2214 0.9301     1.1401
 663
2215-0.9301     1.2001
2216 0.9301     1.2001
 664
2217-0.9301    -1.2201
2218-0.9301     1.2201
2219 0.9301    -1.2201
2220 0.9301     1.2201
 665
2221-0.9301    -1.2401
2222-0.9301     1.2401
2223 0.9301    -1.2401
2224 0.9301     1.2401
 666
2225-0.9301     1.3001
2226 0.9301     1.3001
 667
2227-0.9301    -1.3201
2228-0.9301     1.3201
2229 0.9301    -1.3201
2230 0.9301     1.3201
 668
2231-0.9301    -1.3401
2232-0.9301     1.3401
2233 0.9301    -1.3401
2234 0.9301     1.3401
 669
2235-0.9301     1.4001
2236 0.9301     1.4001
 670
2237-0.9301    -1.4201
2238-0.9301     1.4201
2239 0.9301    -1.4201
2240 0.9301     1.4201
 671
2241-0.9301    -1.4401
2242-0.9301     1.4401
2243 0.9301    -1.4401
2244 0.9301     1.4401
 672
2245-0.9301     1.5001
2246 0.9301     1.5001
 673
2247-0.9301    -1.5201
2248-0.9301     1.5201
2249 0.9301    -1.5201
2250 0.9301     1.5201
 674
2251-0.9301    -1.5401
2252-0.9301     1.5401
2253 0.9301    -1.5401
2254 0.9301     1.5401
 675
2255-0.9301     1.6001
2256 0.9301     1.6001
 676
2257-0.9301    -1.6201
2258-0.9301     1.6201
2259 0.9301    -1.6201
2260 0.9301     1.6201
 677
2261-0.9301    -1.6401
2262-0.9301     1.6401
2263 0.9301    -1.6401
2264 0.9301     1.6401
 678
2265-0.9301     1.7001
2266 0.9301     1.7001
 679
2267-0.9301    -1.7201
2268-0.9301     1.7201
2269 0.9301    -1.7201
2270 0.9301     1.7201
 680
2271-0.9301    -1.7401
2272-0.9301     1.7401
2273 0.9301    -1.7401
2274 0.9301     1.7401
 681
2275-0.9401    -1.0101
2276-0.9401     1.0101
2277 0.9401    -1.0101
2278 0.9401     1.0101
 682
2279-0.9401    -1.0301
2280-0.9401     1.0301
2281 0.9401    -1.0301
2282 0.9401     1.0301
 683
2283-0.9401    -1.1101
2284-0.9401     1.1101
2285 0.9401    -1.1101
2286 0.9401     1.1101
 684
2287-0.9401    -1.1301
2288-0.9401     1.1301
2289 0.9401    -1.1301
2290 0.9401     1.1301
 685
2291-0.9401    -1.2101
2292-0.9401     1.2101
2293 0.9401    -1.2101
2294 0.9401     1.2101
 686
2295-0.9401    -1.2301
2296-0.9401     1.2301
2297 0.9401    -1.2301
2298 0.9401     1.2301
 687
2299-0.9401    -1.3101
2300-0.9401     1.3101
2301 0.9401    -1.3101
2302 0.9401     1.3101
 688
2303-0.9401    -1.3301
2304-0.9401     1.3301
2305 0.9401    -1.3301
2306 0.9401     1.3301
 689
2307-0.9401    -1.4101
2308-0.9401     1.4101
2309 0.9401    -1.4101
2310 0.9401     1.4101
 690
2311-0.9401    -1.4301
2312-0.9401     1.4301
2313 0.9401    -1.4301
2314 0.9401     1.4301
 691
2315-0.9401    -1.5101
2316-0.9401     1.5101
2317 0.9401    -1.5101
2318 0.9401     1.5101
 692
2319-0.9401    -1.5301
2320-0.9401     1.5301
2321 0.9401    -1.5301
2322 0.9401     1.5301
 693
2323-0.9401    -1.6101
2324-0.9401     1.6101
2325 0.9401    -1.6101
2326 0.9401     1.6101
 694
2327-0.9401    -1.6301
2328-0.9401     1.6301
2329 0.9401    -1.6301
2330 0.9401     1.6301
 695
2331-0.9401    -1.7101
2332-0.9401     1.7101
2333 0.9401    -1.7101
2334 0.9401     1.7101
 696
2335-0.9401    -1.7301
2336-0.9401     1.7301
2337 0.9401    -1.7301
2338 0.9401     1.7301
 697
2339 1.0001    -1.0101
2340 1.0001     1.0101
 698
2341 1.0001    -1.0301
2342 1.0001     1.0301
 699
2343 1.0001    -1.1101
2344 1.0001     1.1101
 700
2345 1.0001    -1.1301
2346 1.0001     1.1301
 701
2347 1.0001    -1.2101
2348 1.0001     1.2101
 702
2349 1.0001    -1.2301
2350 1.0001     1.2301
 703
2351 1.0001    -1.3101
2352 1.0001     1.3101
 704
2353 1.0001    -1.3301
2354 1.0001     1.3301
 705
2355 1.0001    -1.4101
2356 1.0001     1.4101
 706
2357 1.0001    -1.4301
2358 1.0001     1.4301
 707
2359 1.0001    -1.5101
2360 1.0001     1.5101
 708
2361 1.0001    -1.5301
2362 1.0001     1.5301
 709
2363 1.0001    -1.6101
2364 1.0001     1.6101
 710
2365 1.0001    -1.6301
2366 1.0001     1.6301
 711
2367 1.0001    -1.7101
2368 1.0001     1.7101
 712
2369 1.0001    -1.7301
2370 1.0001     1.7301
 713
2371-1.0101    -1.0201
2372-1.0101     1.0201
2373 1.0101    -1.0201
2374 1.0101     1.0201
 714
2375-1.0101    -1.0401
2376-1.0101     1.0401
2377 1.0101    -1.0401
2378 1.0101     1.0401
 715
2379-1.0101     1.1001
2380 1.0101     1.1001
 716
2381-1.0101    -1.1201
2382-1.0101     1.1201
2383 1.0101    -1.1201
2384 1.0101     1.1201
 717
2385-1.0101    -1.1401
2386-1.0101     1.1401
2387 1.0101    -1.1401
2388 1.0101     1.1401
 718
2389-1.0101     1.2001
2390 1.0101     1.2001
 719
2391-1.0101    -1.2201
2392-1.0101     1.2201
2393 1.0101    -1.2201
2394 1.0101     1.2201
 720
2395-1.0101    -1.2401
2396-1.0101     1.2401
2397 1.0101    -1.2401
2398 1.0101     1.2401
 721
2399-1.0101     1.3001
2400 1.0101     1.3001
 722
2401-1.0101    -1.3201
2402-1.0101     1.3201
2403 1.0101    -1.3201
2404 1.0101     1.3201
 723
2405-1.0101    -1.3401
2406-1.0101     1.3401
2407 1.0101    -1.3401
2408 1.0101     1.3401
 724
2409-1.0101     1.4001
2410 1.0101     1.4001
 725
2411-1.0101    -1.4201
2412-1.0101     1.4201
2413 1.0101    -1.4201
2414 1.0101     1.4201
 726
2415-1.0101    -1.4401
2416-1.0101     1.4401
2417 1.0101    -1.4401
2418 1.0101     1.4401
 727
2419-1.0101     1.5001
2420 1.0101     1.5001
 728
2421-1.0101    -1.5201
2422-1.0101     1.5201
2423 1.0101    -1.5201
2424 1.0101     1.5201
 729
2425-1.0101    -1.5401
2426-1.0101     1.5401
2427 1.0101    -1.5401
2428 1.0101     1.5401
 730
2429-1.0101     1.6001
2430 1.0101     1.6001
 731
2431-1.0101    -1.6201
2432-1.0101     1.6201
2433 1.0101    -1.6201
2434 1.0101     1.6201
 732
2435-1.0101    -1.6401
2436-1.0101     1.6401
2437 1.0101    -1.6401
2438 1.0101     1.6401
 733
2439-1.0101     1.7001
2440 1.0101     1.7001
 734
2441-1.0101    -1.7201
2442-1.0101     1.7201
2443 1.0101    -1.7201
2444 1.0101     1.7201
 735
2445-1.0101    -1.7401
2446-1.0101     1.7401
2447 1.0101    -1.7401
2448 1.0101     1.7401
 736
2449-1.0201    -1.0301
2450-1.0201     1.0301
2451 1.0201    -1.0301
2452 1.0201     1.0301
 737
2453-1.0201    -1.1101
2454-1.0201     1.1101
2455 1.0201    -1.1101
2456 1.0201     1.1101
 738
2457-1.0201    -1.1301
2458-1.0201     1.1301
2459 1.0201    -1.1301
2460 1.0201     1.1301
 739
2461-1.0201    -1.2101
2462-1.0201     1.2101
2463 1.0201    -1.2101
2464 1.0201     1.2101
 740
2465-1.0201    -1.2301
2466-1.0201     1.2301
2467 1.0201    -1.2301
2468 1.0201     1.2301
 741
2469-1.0201    -1.3101
2470-1.0201     1.3101
2471 1.0201    -1.3101
2472 1.0201     1.3101
 742
2473-1.0201    -1.3301
2474-1.0201     1.3301
2475 1.0201    -1.3301
2476 1.0201     1.3301
 743
2477-1.0201    -1.4101
2478-1.0201     1.4101
2479 1.0201    -1.4101
2480 1.0201     1.4101
 744
2481-1.0201    -1.4301
2482-1.0201     1.4301
2483 1.0201    -1.4301
2484 1.0201     1.4301
 745
2485-1.0201    -1.5101
2486-1.0201     1.5101
2487 1.0201    -1.5101
2488 1.0201     1.5101
 746
2489-1.0201    -1.5301
2490-1.0201     1.5301
2491 1.0201    -1.5301
2492 1.0201     1.5301
 747
2493-1.0201    -1.6101
2494-1.0201     1.6101
2495 1.0201    -1.6101
2496 1.0201     1.6101
 748
2497-1.0201    -1.6301
2498-1.0201     1.6301
2499 1.0201    -1.6301
2500 1.0201     1.6301
 749
2501-1.0201    -1.7101
2502-1.0201     1.7101
2503 1.0201    -1.7101
2504 1.0201     1.7101
 750
2505-1.0201    -1.7301
2506-1.0201     1.7301
2507 1.0201    -1.7301
2508 1.0201     1.7301
 751
2509-1.0301    -1.0401
2510-1.0301     1.0401
2511 1.0301    -1.0401
2512 1.0301     1.0401
 752
2513-1.0301     1.1001
2514 1.0301     1.1001
 753
2515-1.0301    -1.1201
2516-1.0301     1.1201
2517 1.0301    -1.1201
2518 1.0301     1.1201
 754
2519-1.0301    -1.1401
2520-1.0301     1.1401
2521 1.0301    -1.1401
2522 1.0301     1.1401
 755
2523-1.0301     1.2001
2524 1.0301     1.2001
 756
2525-1.0301    -1.2201
2526-1.0301     1.2201
2527 1.0301    -1.2201
2528 1.0301     1.2201
 757
2529-1.0301    -1.2401
2530-1.0301     1.2401
2531 1.0301    -1.2401
2532 1.0301     1.2401
 758
2533-1.0301     1.3001
2534 1.0301     1.3001
 759
2535-1.0301    -1.3201
2536-1.0301     1.3201
2537 1.0301    -1.3201
2538 1.0301     1.3201
 760
2539-1.0301    -1.3401
2540-1.0301     1.3401
2541 1.0301    -1.3401
2542 1.0301     1.3401
 761
2543-1.0301     1.4001
2544 1.0301     1.4001
 762
2545-1.0301    -1.4201
2546-1.0301     1.4201
2547 1.0301    -1.4201
2548 1.0301     1.4201
 763
2549-1.0301    -1.4401
2550-1.0301     1.4401
2551 1.0301    -1.4401
2552 1.0301     1.4401
 764
2553-1.0301     1.5001
2554 1.0301     1.5001
 765
2555-1.0301    -1.5201
2556-1.0301     1.5201
2557 1.0301    -1.5201
2558 1.0301     1.5201
 766
2559-1.0301    -1.5401
2560-1.0301     1.5401
2561 1.0301    -1.5401
2562 1.0301     1.5401
 767
2563-1.0301     1.6001
2564 1.0301     1.6001
 768
2565-1.0301    -1.6201
2566-1.0301     1.6201
2567 1.0301    -1.6201
2568 1.0301     1.6201
 769
2569-1.0301    -1.6401
2570-1.0301     1.6401
2571 1.0301    -1.6401
2572 1.0301     1.6401
 770
2573-1.0301     1.7001
2574 1.0301     1.7001
 771
2575-1.0301    -1.7201
2576-1.0301     1.7201
2577 1.0301    -1.7201
2578 1.0301     1.7201
 772
2579-1.0301    -1.7401
2580-1.0301     1.7401
2581 1.0301    -1.7401
2582 1.0301     1.7401
 773
2583-1.0401    -1.1101
2584-1.0401     1.1101
2585 1.0401    -1.1101
2586 1.0401     1.1101
 774
2587-1.0401    -1.1301
2588-1.0401     1.1301
2589 1.0401    -1.1301
2590 1.0401     1.1301
 775
2591-1.0401    -1.2101
2592-1.0401     1.2101
2593 1.0401    -1.2101
2594 1.0401     1.2101
 776
2595-1.0401    -1.2301
2596-1.0401     1.2301
2597 1.0401    -1.2301
2598 1.0401     1.2301
 777
2599-1.0401    -1.3101
2600-1.0401     1.3101
2601 1.0401    -1.3101
2602 1.0401     1.3101
 778
2603-1.0401    -1.3301
2604-1.0401     1.3301
2605 1.0401    -1.3301
2606 1.0401     1.3301
 779
2607-1.0401    -1.4101
2608-1.0401     1.4101
2609 1.0401    -1.4101
2610 1.0401     1.4101
 780
2611-1.0401    -1.4301
2612-1.0401     1.4301
2613 1.0401    -1.4301
2614 1.0401     1.4301
 781
2615-1.0401    -1.5101
2616-1.0401     1.5101
2617 1.0401    -1.5101
2618 1.0401     1.5101
 782
2619-1.0401    -1.5301
2620-1.0401     1.5301
2621 1.0401    -1.5301
2622 1.0401     1.5301
 783
2623-1.0401    -1.6101
2624-1.0401     1.6101
2625 1.0401    -1.6101
2626 1.0401     1.6101
 784
2627-1.0401    -1.6301
2628-1.0401     1.6301
2629 1.0401    -1.6301
2630 1.0401     1.6301
 785
2631-1.0401    -1.7101
2632-1.0401     1.7101
2633 1.0401    -1.7101
2634 1.0401     1.7101
 786
2635-1.0401    -1.7301
2636-1.0401     1.7301
2637 1.0401    -1.7301
2638 1.0401     1.7301
 787
2639 1.1001    -1.1101
2640 1.1001     1.1101
 788
2641 1.1001    -1.1301
2642 1.1001     1.1301
 789
2643 1.1001    -1.2101
2644 1.1001     1.2101
 790
2645 1.1001    -1.2301
2646 1.1001     1.2301
 791
2647 1.1001    -1.3101
2648 1.1001     1.3101
 792
2649 1.1001    -1.3301
2650 1.1001     1.3301
 793
2651 1.1001    -1.4101
2652 1.1001     1.4101
 794
2653 1.1001    -1.4301
2654 1.1001     1.4301
 795
2655 1.1001    -1.5101
2656 1.1001     1.5101
 796
2657 1.1001    -1.5301
2658 1.1001     1.5301
 797
2659 1.1001    -1.6101
2660 1.1001     1.6101
 798
2661 1.1001    -1.6301
2662 1.1001     1.6301
 799
2663 1.1001    -1.7101
2664 1.1001     1.7101
 800
2665 1.1001    -1.7301
2666 1.1001     1.7301
 801
2667-1.1101    -1.1201
2668-1.1101     1.1201
2669 1.1101    -1.1201
2670 1.1101     1.1201
 802
2671-1.1101    -1.1401
2672-1.1101     1.1401
2673 1.1101    -1.1401
2674 1.1101     1.1401
 803
2675-1.1101     1.2001
2676 1.1101     1.2001
 804
2677-1.1101    -1.2201
2678-1.1101     1.2201
2679 1.1101    -1.2201
2680 1.1101     1.2201
 805
2681-1.1101    -1.2401
2682-1.1101     1.2401
2683 1.1101    -1.2401
2684 1.1101     1.2401
 806
2685-1.1101     1.3001
2686 1.1101     1.3001
 807
2687-1.1101    -1.3201
2688-1.1101     1.3201
2689 1.1101    -1.3201
2690 1.1101     1.3201
 808
2691-1.1101    -1.3401
2692-1.1101     1.3401
2693 1.1101    -1.3401
2694 1.1101     1.3401
 809
2695-1.1101     1.4001
2696 1.1101     1.4001
 810
2697-1.1101    -1.4201
2698-1.1101     1.4201
2699 1.1101    -1.4201
2700 1.1101     1.4201
 811
2701-1.1101    -1.4401
2702-1.1101     1.4401
2703 1.1101    -1.4401
2704 1.1101     1.4401
 812
2705-1.1101     1.5001
2706 1.1101     1.5001
 813
2707-1.1101    -1.5201
2708-1.1101     1.5201
2709 1.1101    -1.5201
2710 1.1101     1.5201
 814
2711-1.1101    -1.5401
2712-1.1101     1.5401
2713 1.1101    -1.5401
2714 1.1101     1.5401
 815
2715-1.1101     1.6001
2716 1.1101     1.6001
 816
2717-1.1101    -1.6201
2718-1.1101     1.6201
2719 1.1101    -1.6201
2720 1.1101     1.6201
 817
2721-1.1101    -1.6401
2722-1.1101     1.6401
2723 1.1101    -1.6401
2724 1.1101     1.6401
 818
2725-1.1101     1.7001
2726 1.1101     1.7001
 819
2727-1.1101    -1.7201
2728-1.1101     1.7201
2729 1.1101    -1.7201
2730 1.1101     1.7201
 820
2731-1.1101    -1.7401
2732-1.1101     1.7401
2733 1.1101    -1.7401
2734 1.1101     1.7401
 821
2735-1.1201    -1.1301
2736-1.1201     1.1301
2737 1.1201    -1.1301
2738 1.1201     1.1301
 822
2739-1.1201    -1.2101
2740-1.1201     1.2101
2741 1.1201    -1.2101
2742 1.1201     1.2101
 823
2743-1.1201    -1.2301
2744-1.1201     1.2301
2745 1.1201    -1.2301
2746 1.1201     1.2301
 824
2747-1.1201    -1.3101
2748-1.1201     1.3101
2749 1.1201    -1.3101
2750 1.1201     1.3101
 825
2751-1.1201    -1.3301
2752-1.1201     1.3301
2753 1.1201    -1.3301
2754 1.1201     1.3301
 826
2755-1.1201    -1.4101
2756-1.1201     1.4101
2757 1.1201    -1.4101
2758 1.1201     1.4101
 827
2759-1.1201    -1.4301
2760-1.1201     1.4301
2761 1.1201    -1.4301
2762 1.1201     1.4301
 828
2763-1.1201    -1.5101
2764-1.1201     1.5101
2765 1.1201    -1.5101
2766 1.1201     1.5101
 829
2767-1.1201    -1.5301
2768-1.1201     1.5301
2769 1.1201    -1.5301
2770 1.1201     1.5301
 830
2771-1.1201    -1.6101
2772-1.1201     1.6101
2773 1.1201    -1.6101
2774 1.1201     1.6101
 831
2775-1.1201    -1.6301
2776-1.1201     1.6301
2777 1.1201    -1.6301
2778 1.1201     1.6301
 832
2779-1.1201    -1.7101
2780-1.1201     1.7101
2781 1.1201    -1.7101
2782 1.1201     1.7101
 833
2783-1.1201    -1.7301
2784-1.1201     1.7301
2785 1.1201    -1.7301
2786 1.1201     1.7301
 834
2787-1.1301    -1.1401
2788-1.1301     1.1401
2789 1.1301    -1.1401
2790 1.1301     1.1401
 835
2791-1.1301     1.2001
2792 1.1301     1.2001
 836
2793-1.1301    -1.2201
2794-1.1301     1.2201
2795 1.1301    -1.2201
2796 1.1301     1.2201
 837
2797-1.1301    -1.2401
2798-1.1301     1.2401
2799 1.1301    -1.2401
2800 1.1301     1.2401
 838
2801-1.1301     1.3001
2802 1.1301     1.3001
 839
2803-1.1301    -1.3201
2804-1.1301     1.3201
2805 1.1301    -1.3201
2806 1.1301     1.3201
 840
2807-1.1301    -1.3401
2808-1.1301     1.3401
2809 1.1301    -1.3401
2810 1.1301     1.3401
 841
2811-1.1301     1.4001
2812 1.1301     1.4001
 842
2813-1.1301    -1.4201
2814-1.1301     1.4201
2815 1.1301    -1.4201
2816 1.1301     1.4201
 843
2817-1.1301    -1.4401
2818-1.1301     1.4401
2819 1.1301    -1.4401
2820 1.1301     1.4401
 844
2821-1.1301     1.5001
2822 1.1301     1.5001
 845
2823-1.1301    -1.5201
2824-1.1301     1.5201
2825 1.1301    -1.5201
2826 1.1301     1.5201
 846
2827-1.1301    -1.5401
2828-1.1301     1.5401
2829 1.1301    -1.5401
2830 1.1301     1.5401
 847
2831-1.1301     1.6001
2832 1.1301     1.6001
 848
2833-1.1301    -1.6201
2834-1.1301     1.6201
2835 1.1301    -1.6201
2836 1.1301     1.6201
 849
2837-1.1301    -1.6401
2838-1.1301     1.6401
2839 1.1301    -1.6401
2840 1.1301     1.6401
 850
2841-1.1301     1.7001
2842 1.1301     1.7001
 851
2843-1.1301    -1.7201
2844-1.1301     1.7201
2845 1.1301    -1.7201
2846 1.1301     1.7201
 852
2847-1.1301    -1.7401
2848-1.1301     1.7401
2849 1.1301    -1.7401
2850 1.1301     1.7401
 853
2851-1.1401    -1.2101
2852-1.1401     1.2101
2853 1.1401    -1.2101
2854 1.1401     1.2101
 854
2855-1.1401    -1.2301
2856-1.1401     1.2301
2857 1.1401    -1.2301
2858 1.1401     1.2301
 855
2859-1.1401    -1.3101
2860-1.1401     1.3101
2861 1.1401    -1.3101
2862 1.1401     1.3101
 856
2863-1.1401    -1.3301
2864-1.1401     1.3301
2865 1.1401    -1.3301
2866 1.1401     1.3301
 857
2867-1.1401    -1.4101
2868-1.1401     1.4101
2869 1.1401    -1.4101
2870 1.1401     1.4101
 858
2871-1.1401    -1.4301
2872-1.1401     1.4301
2873 1.1401    -1.4301
2874 1.1401     1.4301
 859
2875-1.1401    -1.5101
2876-1.1401     1.5101
2877 1.1401    -1.5101
2878 1.1401     1.5101
 860
2879-1.1401    -1.5301
2880-1.1401     1.5301
2881 1.1401    -1.5301
2882 1.1401     1.5301
 861
2883-1.1401    -1.6101
2884-1.1401     1.6101
2885 1.1401    -1.6101
2886 1.1401     1.6101
 862
2887-1.1401    -1.6301
2888-1.1401     1.6301
2889 1.1401    -1.6301
2890 1.1401     1.6301
 863
2891-1.1401    -1.7101
2892-1.1401     1.7101
2893 1.1401    -1.7101
2894 1.1401     1.7101
 864
2895-1.1401    -1.7301
2896-1.1401     1.7301
2897 1.1401    -1.7301
2898 1.1401     1.7301
 865
2899 1.2001    -1.2101
2900 1.2001     1.2101
 866
2901 1.2001    -1.2301
2902 1.2001     1.2301
 867
2903 1.2001    -1.3101
2904 1.2001     1.3101
 868
2905 1.2001    -1.3301
2906 1.2001     1.3301
 869
2907 1.2001    -1.4101
2908 1.2001     1.4101
 870
2909 1.2001    -1.4301
2910 1.2001     1.4301
 871
2911 1.2001    -1.5101
2912 1.2001     1.5101
 872
2913 1.2001    -1.5301
2914 1.2001     1.5301
 873
2915 1.2001    -1.6101
2916 1.2001     1.6101
 874
2917 1.2001    -1.6301
2918 1.2001     1.6301
 875
2919 1.2001    -1.7101
2920 1.2001     1.7101
 876
2921 1.2001    -1.7301
2922 1.2001     1.7301
 877
2923-1.2101    -1.2201
2924-1.2101     1.2201
2925 1.2101    -1.2201
2926 1.2101     1.2201
 878
2927-1.2101    -1.2401
2928-1.2101     1.2401
2929 1.2101    -1.2401
2930 1.2101     1.2401
 879
2931-1.2101     1.3001
2932 1.2101     1.3001
 880
2933-1.2101    -1.3201
2934-1.2101     1.3201
2935 1.2101    -1.3201
2936 1.2101     1.3201
 881
2937-1.2101    -1.3401
2938-1.2101     1.3401
2939 1.2101    -1.3401
2940 1.2101     1.3401
 882
2941-1.2101     1.4001
2942 1.2101     1.4001
 883
2943-1.2101    -1.4201
2944-1.2101     1.4201
2945 1.2101    -1.4201
2946 1.2101     1.4201
 884
2947-1.2101    -1.4401
2948-1.2101     1.4401
2949 1.2101    -1.4401
2950 1.2101     1.4401
 885
2951-1.2101     1.5001
2952 1.2101     1.5001
 886
2953-1.2101    -1.5201
2954-1.2101     1.5201
2955 1.2101    -1.5201
2956 1.2101     1.5201
 887
2957-1.2101    -1.5401
2958-1.2101     1.5401
2959 1.2101    -1.5401
2960 1.2101     1.5401
 888
2961-1.2101     1.6001
2962 1.2101     1.6001
 889
2963-1.2101    -1.6201
2964-1.2101     1.6201
2965 1.2101    -1.6201
2966 1.2101     1.6201
 890
2967-1.2101    -1.6401
2968-1.2101     1.6401
2969 1.2101    -1.6401
2970 1.2101     1.6401
 891
2971-1.2101     1.7001
2972 1.2101     1.7001
 892
2973-1.2101    -1.7201
2974-1.2101     1.7201
2975 1.2101    -1.7201
2976 1.2101     1.7201
 893
2977-1.2101    -1.7401
2978-1.2101     1.7401
2979 1.2101    -1.7401
2980 1.2101     1.7401
 894
2981-1.2201    -1.2301
2982-1.2201     1.2301
2983 1.2201    -1.2301
2984 1.2201     1.2301
 895
2985-1.2201    -1.3101
2986-1.2201     1.3101
2987 1.2201    -1.3101
2988 1.2201     1.3101
 896
2989-1.2201    -1.3301
2990-1.2201     1.3301
2991 1.2201    -1.3301
2992 1.2201     1.3301
 897
2993-1.2201    -1.4101
2994-1.2201     1.4101
2995 1.2201    -1.4101
2996 1.2201     1.4101
 898
2997-1.2201    -1.4301
2998-1.2201     1.4301
2999 1.2201    -1.4301
3000 1.2201     1.4301
 899
3001-1.2201    -1.5101
3002-1.2201     1.5101
3003 1.2201    -1.5101
3004 1.2201     1.5101
 900
3005-1.2201    -1.5301
3006-1.2201     1.5301
3007 1.2201    -1.5301
3008 1.2201     1.5301
 901
3009-1.2201    -1.6101
3010-1.2201     1.6101
3011 1.2201    -1.6101
3012 1.2201     1.6101
 902
3013-1.2201    -1.6301
3014-1.2201     1.6301
3015 1.2201    -1.6301
3016 1.2201     1.6301
 903
3017-1.2201    -1.7101
3018-1.2201     1.7101
3019 1.2201    -1.7101
3020 1.2201     1.7101
 904
3021-1.2201    -1.7301
3022-1.2201     1.7301
3023 1.2201    -1.7301
3024 1.2201     1.7301
 905
3025-1.2301    -1.2401
3026-1.2301     1.2401
3027 1.2301    -1.2401
3028 1.2301     1.2401
 906
3029-1.2301     1.3001
3030 1.2301     1.3001
 907
3031-1.2301    -1.3201
3032-1.2301     1.3201
3033 1.2301    -1.3201
3034 1.2301     1.3201
 908
3035-1.2301    -1.3401
3036-1.2301     1.3401
3037 1.2301    -1.3401
3038 1.2301     1.3401
 909
3039-1.2301     1.4001
3040 1.2301     1.4001
 910
3041-1.2301    -1.4201
3042-1.2301     1.4201
3043 1.2301    -1.4201
3044 1.2301     1.4201
 911
3045-1.2301    -1.4401
3046-1.2301     1.4401
3047 1.2301    -1.4401
3048 1.2301     1.4401
 912
3049-1.2301     1.5001
3050 1.2301     1.5001
 913
3051-1.2301    -1.5201
3052-1.2301     1.5201
3053 1.2301    -1.5201
3054 1.2301     1.5201
 914
3055-1.2301    -1.5401
3056-1.2301     1.5401
3057 1.2301    -1.5401
3058 1.2301     1.5401
 915
3059-1.2301     1.6001
3060 1.2301     1.6001
 916
3061-1.2301    -1.6201
3062-1.2301     1.6201
3063 1.2301    -1.6201
3064 1.2301     1.6201
 917
3065-1.2301    -1.6401
3066-1.2301     1.6401
3067 1.2301    -1.6401
3068 1.2301     1.6401
 918
3069-1.2301     1.7001
3070 1.2301     1.7001
 919
3071-1.2301    -1.7201
3072-1.2301     1.7201
3073 1.2301    -1.7201
3074 1.2301     1.7201
 920
3075-1.2301    -1.7401
3076-1.2301     1.7401
3077 1.2301    -1.7401
3078 1.2301     1.7401
 921
3079-1.2401    -1.3101
3080-1.2401     1.3101
3081 1.2401    -1.3101
3082 1.2401     1.3101
 922
3083-1.2401    -1.3301
3084-1.2401     1.3301
3085 1.2401    -1.3301
3086 1.2401     1.3301
 923
3087-1.2401    -1.4101
3088-1.2401     1.4101
3089 1.2401    -1.4101
3090 1.2401     1.4101
 924
3091-1.2401    -1.4301
3092-1.2401     1.4301
3093 1.2401    -1.4301
3094 1.2401     1.4301
 925
3095-1.2401    -1.5101
3096-1.2401     1.5101
3097 1.2401    -1.5101
3098 1.2401     1.5101
 926
3099-1.2401    -1.5301
3100-1.2401     1.5301
3101 1.2401    -1.5301
3102 1.2401     1.5301
 927
3103-1.2401    -1.6101
3104-1.2401     1.6101
3105 1.2401    -1.6101
3106 1.2401     1.6101
 928
3107-1.2401    -1.6301
3108-1.2401     1.6301
3109 1.2401    -1.6301
3110 1.2401     1.6301
 929
3111-1.2401    -1.7101
3112-1.2401     1.7101
3113 1.2401    -1.7101
3114 1.2401     1.7101
 930
3115-1.2401    -1.7301
3116-1.2401     1.7301
3117 1.2401    -1.7301
3118 1.2401     1.7301
 931
3119 1.3001    -1.3101
3120 1.3001     1.3101
 932
3121 1.3001    -1.3301
3122 1.3001     1.3301
 933
3123 1.3001    -1.4101
3124 1.3001     1.4101
 934
3125 1.3001    -1.4301
3126 1.3001     1.4301
 935
3127 1.3001    -1.5101
3128 1.3001     1.5101
 936
3129 1.3001    -1.5301
3130 1.3001     1.5301
 937
3131 1.3001    -1.6101
3132 1.3001     1.6101
 938
3133 1.3001    -1.6301
3134 1.3001     1.6301
 939
3135 1.3001    -1.7101
3136 1.3001     1.7101
 940
3137 1.3001    -1.7301
3138 1.3001     1.7301
 941
3139-1.3101    -1.3201
3140-1.3101     1.3201
3141 1.3101    -1.3201
3142 1.3101     1.3201
 942
3143-1.3101    -1.3401
3144-1.3101     1.3401
3145 1.3101    -1.3401
3146 1.3101     1.3401
 943
3147-1.3101     1.4001
3148 1.3101     1.4001
 944
3149-1.3101    -1.4201
3150-1.3101     1.4201
3151 1.3101    -1.4201
3152 1.3101     1.4201
 945
3153-1.3101    -1.4401
3154-1.3101     1.4401
3155 1.3101    -1.4401
3156 1.3101     1.4401
 946
3157-1.3101     1.5001
3158 1.3101     1.5001
 947
3159-1.3101    -1.5201
3160-1.3101     1.5201
3161 1.3101    -1.5201
3162 1.3101     1.5201
 948
3163-1.3101    -1.5401
3164-1.3101     1.5401
3165 1.3101    -1.5401
3166 1.3101     1.5401
 949
3167-1.3101     1.6001
3168 1.3101     1.6001
 950
3169-1.3101    -1.6201
3170-1.3101     1.6201
3171 1.3101    -1.6201
3172 1.3101     1.6201
 951
3173-1.3101    -1.6401
3174-1.3101     1.6401
3175 1.3101    -1.6401
3176 1.3101     1.6401
 952
3177-1.3101     1.7001
3178 1.3101     1.7001
 953
3179-1.3101    -1.7201
3180-1.3101     1.7201
3181 1.3101    -1.7201
3182 1.3101     1.7201
 954
3183-1.3101    -1.7401
3184-1.3101     1.7401
3185 1.3101    -1.7401
3186 1.3101     1.7401
 955
3187-1.3201    -1.3301
3188-1.3201     1.3301
3189 1.3201    -1.3301
3190 1.3201     1.3301
 956
3191-1.3201    -1.4101
3192-1.3201     1.4101
3193 1.3201    -1.4101
3194 1.3201     1.4101
 957
3195-1.3201    -1.4301
3196-1.3201     1.4301
3197 1.3201    -1.4301
3198 1.3201     1.4301
 958
3199-1.3201    -1.5101
3200-1.3201     1.5101
3201 1.3201    -1.5101
3202 1.3201     1.5101
 959
3203-1.3201    -1.5301
3204-1.3201     1.5301
3205 1.3201    -1.5301
3206 1.3201     1.5301
 960
3207-1.3201    -1.6101
3208-1.3201     1.6101
3209 1.3201    -1.6101
3210 1.3201     1.6101
 961
3211-1.3201    -1.6301
3212-1.3201     1.6301
3213 1.3201    -1.6301
3214 1.3201     1.6301
 962
3215-1.3201    -1.7101
3216-1.3201     1.7101
3217 1.3201    -1.7101
3218 1.3201     1.7101
 963
3219-1.3201    -1.7301
3220-1.3201     1.7301
3221 1.3201    -1.7301
3222 1.3201     1.7301
 964
3223-1.3301    -1.3401
3224-1.3301     1.3401
3225 1.3301    -1.3401
3226 1.3301     1.3401
 965
3227-1.3301     1.4001
3228 1.3301     1.4001
 966
3229-1.3301    -1.4201
3230-1.3301     1.4201
3231 1.3301    -1.4201
3232 1.3301     1.4201
 967
3233-1.3301    -1.4401
3234-1.3301     1.4401
3235 1.3301    -1.4401
3236 1.3301     1.4401
 968
3237-1.3301     1.5001
3238 1.3301     1.5001
 969
3239-1.3301    -1.5201
3240-1.3301     1.5201
3241 1.3301    -1.5201
3242 1.3301     1.5201
 970
3243-1.3301    -1.5401
3244-1.3301     1.5401
3245 1.3301    -1.5401
3246 1.3301     1.5401
 971
3247-1.3301     1.6001
3248 1.3301     1.6001
 972
3249-1.3301    -1.6201
3250-1.3301     1.6201
3251 1.3301    -1.6201
3252 1.3301     1.6201
 973
3253-1.3301    -1.6401
3254-1.3301     1.6401
3255 1.3301    -1.6401
3256 1.3301     1.6401
 974
3257-1.3301     1.7001
3258 1.3301     1.7001
 975
3259-1.3301    -1.7201
3260-1.3301     1.7201
3261 1.3301    -1.7201
3262 1.3301     1.7201
 976
3263-1.3301    -1.7401
3264-1.3301     1.7401
3265 1.3301    -1.7401
3266 1.3301     1.7401
 977
3267-1.3401    -1.4101
3268-1.3401     1.4101
3269 1.3401    -1.4101
3270 1.3401     1.4101
 978
3271-1.3401    -1.4301
3272-1.3401     1.4301
3273 1.3401    -1.4301
3274 1.3401     1.4301
 979
3275-1.3401    -1.5101
3276-1.3401     1.5101
3277 1.3401    -1.5101
3278 1.3401     1.5101
 980
3279-1.3401    -1.5301
3280-1.3401     1.5301
3281 1.3401    -1.5301
3282 1.3401     1.5301
 981
3283-1.3401    -1.6101
3284-1.3401     1.6101
3285 1.3401    -1.6101
3286 1.3401     1.6101
 982
3287-1.3401    -1.6301
3288-1.3401     1.6301
3289 1.3401    -1.6301
3290 1.3401     1.6301
 983
3291-1.3401    -1.7101
3292-1.3401     1.7101
3293 1.3401    -1.7101
3294 1.3401     1.7101
 984
3295-1.3401    -1.7301
3296-1.3401     1.7301
3297 1.3401    -1.7301
3298 1.3401     1.7301
 985
3299 1.4001    -1.4101
3300 1.4001     1.4101
 986
3301 1.4001    -1.4301
3302 1.4001     1.4301
 987
3303 1.4001    -1.5101
3304 1.4001     1.5101
 988
3305 1.4001    -1.5301
3306 1.4001     1.5301
 989
3307 1.4001    -1.6101
3308 1.4001     1.6101
 990
3309 1.4001    -1.6301
3310 1.4001     1.6301
 991
3311 1.4001    -1.7101
3312 1.4001     1.7101
 992
3313 1.4001    -1.7301
3314 1.4001     1.7301
 993
3315-1.4101    -1.4201
3316-1.4101     1.4201
3317 1.4101    -1.4201
3318 1.4101     1.4201
 994
3319-1.4101    -1.4401
3320-1.4101     1.4401
3321 1.4101    -1.4401
3322 1.4101     1.4401
 995
3323-1.4101     1.5001
3324 1.4101     1.5001
 996
3325-1.4101    -1.5201
3326-1.4101     1.5201
3327 1.4101    -1.5201
3328 1.4101     1.5201
 997
3329-1.4101    -1.5401
3330-1.4101     1.5401
3331 1.4101    -1.5401
3332 1.4101     1.5401
 998
3333-1.4101     1.6001
3334 1.4101     1.6001
 999
3335-1.4101    -1.6201
3336-1.4101     1.6201
3337 1.4101    -1.6201
3338 1.4101     1.6201
1000
3339-1.4101    -1.6401
3340-1.4101     1.6401
3341 1.4101    -1.6401
3342 1.4101     1.6401
1001
3343-1.4101     1.7001
3344 1.4101     1.7001
1002
3345-1.4101    -1.7201
3346-1.4101     1.7201
3347 1.4101    -1.7201
3348 1.4101     1.7201
1003
3349-1.4101    -1.7401
3350-1.4101     1.7401
3351 1.4101    -1.7401
3352 1.4101     1.7401
1004
3353-1.4201    -1.4301
3354-1.4201     1.4301
3355 1.4201    -1.4301
3356 1.4201     1.4301
1005
3357-1.4201    -1.5101
3358-1.4201     1.5101
3359 1.4201    -1.5101
3360 1.4201     1.5101
1006
3361-1.4201    -1.5301
3362-1.4201     1.5301
3363 1.4201    -1.5301
3364 1.4201     1.5301
1007
3365-1.4201    -1.6101
3366-1.4201     1.6101
3367 1.4201    -1.6101
3368 1.4201     1.6101
1008
3369-1.4201    -1.6301
3370-1.4201     1.6301
3371 1.4201    -1.6301
3372 1.4201     1.6301
1009
3373-1.4201    -1.7101
3374-1.4201     1.7101
3375 1.4201    -1.7101
3376 1.4201     1.7101
1010
3377-1.4201    -1.7301
3378-1.4201     1.7301
3379 1.4201    -1.7301
3380 1.4201     1.7301
1011
3381-1.4301    -1.4401
3382-1.4301     1.4401
3383 1.4301    -1.4401
3384 1.4301     1.4401
1012
3385-1.4301     1.5001
3386 1.4301     1.5001
1013
3387-1.4301    -1.5201
3388-1.4301     1.5201
3389 1.4301    -1.5201
3390 1.4301     1.5201
1014
3391-1.4301    -1.5401
3392-1.4301     1.5401
3393 1.4301    -1.5401
3394 1.4301     1.5401
1015
3395-1.4301     1.6001
3396 1.4301     1.6001
1016
3397-1.4301    -1.6201
3398-1.4301     1.6201
3399 1.4301    -1.6201
3400 1.4301     1.6201
1017
3401-1.4301    -1.6401
3402-1.4301     1.6401
3403 1.4301    -1.6401
3404 1.4301     1.6401
1018
3405-1.4301     1.7001
3406 1.4301     1.7001
1019
3407-1.4301    -1.7201
3408-1.4301     1.7201
3409 1.4301    -1.7201
3410 1.4301     1.7201
1020
3411-1.4301    -1.7401
3412-1.4301     1.7401
3413 1.4301    -1.7401
3414 1.4301     1.7401
1021
3415-1.4401    -1.5101
3416-1.4401     1.5101
3417 1.4401    -1.5101
3418 1.4401     1.5101
1022
3419-1.4401    -1.5301
3420-1.4401     1.5301
3421 1.4401    -1.5301
3422 1.4401     1.5301
1023
3423-1.4401    -1.6101
3424-1.4401     1.6101
3425 1.4401    -1.6101
3426 1.4401     1.6101
1024
3427-1.4401    -1.6301
3428-1.4401     1.6301
3429 1.4401    -1.6301
3430 1.4401     1.6301
1025
3431-1.4401    -1.7101
3432-1.4401     1.7101
3433 1.4401    -1.7101
3434 1.4401     1.7101
1026
3435-1.4401    -1.7301
3436-1.4401     1.7301
3437 1.4401    -1.7301
3438 1.4401     1.7301
1027
3439 1.5001    -1.5101
3440 1.5001     1.5101
1028
3441 1.5001    -1.5301
3442 1.5001     1.5301
1029
3443 1.5001    -1.6101
3444 1.5001     1.6101
1030
3445 1.5001    -1.6301
3446 1.5001     1.6301
1031
3447 1.5001    -1.7101
3448 1.5001     1.7101
1032
3449 1.5001    -1.7301
3450 1.5001     1.7301
1033
3451-1.5101    -1.5201
3452-1.5101     1.5201
3453 1.5101    -1.5201
3454 1.5101     1.5201
1034
3455-1.5101    -1.5401
3456-1.5101     1.5401
3457 1.5101    -1.5401
3458 1.5101     1.5401
1035
3459-1.5101     1.6001
3460 1.5101     1.6001
1036
3461-1.5101    -1.6201
3462-1.5101     1.6201
3463 1.5101    -1.6201
3464 1.5101     1.6201
1037
3465-1.5101    -1.6401
3466-1.5101     1.6401
3467 1.5101    -1.6401
3468 1.5101     1.6401
1038
3469-1.5101     1.7001
3470 1.5101     1.7001
1039
3471-1.5101    -1.7201
3472-1.5101     1.7201
3473 1.5101    -1.7201
3474 1.5101     1.7201
1040
3475-1.5101    -1.7401
3476-1.5101     1.7401
3477 1.5101    -1.7401
3478 1.5101     1.7401
1041
3479-1.5201    -1.5301
3480-1.5201     1.5301
3481 1.5201    -1.5301
3482 1.5201     1.5301
1042
3483-1.5201    -1.6101
3484-1.5201     1.6101
3485 1.5201    -1.6101
3486 1.5201     1.6101
1043
3487-1.5201    -1.6301
3488-1.5201     1.6301
3489 1.5201    -1.6301
3490 1.5201     1.6301
1044
3491-1.5201    -1.7101
3492-1.5201     1.7101
3493 1.5201    -1.7101
3494 1.5201     1.7101
1045
3495-1.5201    -1.7301
3496-1.5201     1.7301
3497 1.5201    -1.7301
3498 1.5201     1.7301
1046
3499-1.5301    -1.5401
3500-1.5301     1.5401
3501 1.5301    -1.5401
3502 1.5301     1.5401
1047
3503-1.5301     1.6001
3504 1.5301     1.6001
1048
3505-1.5301    -1.6201
3506-1.5301     1.6201
3507 1.5301    -1.6201
3508 1.5301     1.6201
1049
3509-1.5301    -1.6401
3510-1.5301     1.6401
3511 1.5301    -1.6401
3512 1.5301     1.6401
1050
3513-1.5301     1.7001
3514 1.5301     1.7001
1051
3515-1.5301    -1.7201
3516-1.5301     1.7201
3517 1.5301    -1.7201
3518 1.5301     1.7201
1052
3519-1.5301    -1.7401
3520-1.5301     1.7401
3521 1.5301    -1.7401
3522 1.5301     1.7401
1053
3523-1.5401    -1.6101
3524-1.5401     1.6101
3525 1.5401    -1.6101
3526 1.5401     1.6101
1054
3527-1.5401    -1.6301
3528-1.5401     1.6301
3529 1.5401    -1.6301
3530 1.5401     1.6301
1055
3531-1.5401    -1.7101
3532-1.5401     1.7101
3533 1.5401    -1.7101
3534 1.5401     1.7101
1056
3535-1.5401    -1.7301
3536-1.5401     1.7301
3537 1.5401    -1.7301
3538 1.5401     1.7301
1057
3539 1.6001    -1.6101
3540 1.6001     1.6101
1058
3541 1.6001    -1.6301
3542 1.6001     1.6301
1059
3543 1.6001    -1.7101
3544 1.6001     1.7101
1060
3545 1.6001    -1.7301
3546 1.6001     1.7301
1061
3547-1.6101    -1.6201
3548-1.6101     1.6201
3549 1.6101    -1.6201
3550 1.6101     1.6201
1062
3551-1.6101    -1.6401
3552-1.6101     1.6401
3553 1.6101    -1.6401
3554 1.6101     1.6401
1063
3555-1.6101     1.7001
3556 1.6101     1.7001
1064
3557-1.6101    -1.7201
3558-1.6101     1.7201
3559 1.6101    -1.7201
3560 1.6101     1.7201
1065
3561-1.6101    -1.7401
3562-1.6101     1.7401
3563 1.6101    -1.7401
3564 1.6101     1.7401
1066
3565-1.6201    -1.6301
3566-1.6201     1.6301
3567 1.6201    -1.6301
3568 1.6201     1.6301
1067
3569-1.6201    -1.7101
3570-1.6201     1.7101
3571 1.6201    -1.7101
3572 1.6201     1.7101
1068
3573-1.6201    -1.7301
3574-1.6201     1.7301
3575 1.6201    -1.7301
3576 1.6201     1.7301
1069
3577-1.6301    -1.6401
3578-1.6301     1.6401
3579 1.6301    -1.6401
3580 1.6301     1.6401
1070
3581-1.6301     1.7001
3582 1.6301     1.7001
1071
3583-1.6301    -1.7201
3584-1.6301     1.7201
3585 1.6301    -1.7201
3586 1.6301     1.7201
1072
3587-1.6301    -1.7401
3588-1.6301     1.7401
3589 1.6301    -1.7401
3590 1.6301     1.7401
1073
3591-1.6401    -1.7101
3592-1.6401     1.7101
3593 1.6401    -1.7101
3594 1.6401     1.7101
1074
3595-1.6401    -1.7301
3596-1.6401     1.7301
3597 1.6401    -1.7301
3598 1.6401     1.7301
1075
3599 1.7001    -1.7101
3600 1.7001     1.7101
1076
3601 1.7001    -1.7301
3602 1.7001     1.7301
1077
3603-1.7101    -1.7201
3604-1.7101     1.7201
3605 1.7101    -1.7201
3606 1.7101     1.7201
1078
3607-1.7101    -1.7401
3608-1.7101     1.7401
3609 1.7101    -1.7401
3610 1.7101     1.7401
1079
3611-1.7201    -1.7301
3612-1.7201     1.7301
3613 1.7201    -1.7301
3614 1.7201     1.7301
1080
3615-1.7301    -1.7401
3616-1.7301     1.7401
3617 1.7301    -1.7401
3618 1.7301     1.7401
