Ncor= 1
NsvNR67
mult= 2
 NE = 2

L:   5s1   5p1 

   5s  0  2   5p  0  4   4d  0  4   6s  0  2   6p  0  4   5d  0  4
   7s  0  2   7p  0  4   6d  0  4   4f  0  4   5f  0  4   5g  0  4
   6f  0  4   6g  0  4   7d  0  4   7f  0  4   7g  0  4   8s  0  2
   8p  0  2   8d  0  2   8f  0  2   8g  0  2   9s  0  2   9p  0  2
   9d  0  2   9f  0  2   9g  0  2  10s  0  2  10p  0  2  10d  0  2
  10f  0  2  10g  0  2  11s  0  2  11p  0  2  11d  0  2  11f  0  2
  11g  0  2  12s  0  2  12p  0  2  12d  0  2  12f  0  2  12g  0  2
  13s  0  2  13p  0  2  13d  0  2  13f  0  2  13g  0  2  14s  0  2
  14p  0  2  14d  0  2  14f  0  2  14g  0  2  15s  0  2  15p  0  2
  15d  0  2  15f  0  2  15g  0  2  16s  0  2  16p  0  2  16d  0  2
  16f  0  2  16g  0  2  17s  0  2  17p  0  2  17d  0  2  17f  0  2
  17g  0  2        
>>>>>>>>>>>>> Head of the file CONF.INP >>>>>>>>>>>>>>>>>>>>>>>>
  Sr odd
  Z = 38.0
 Am = 88.0
  J = 0.0
 Jm = 0.0
 Nso=  12
 Nc =   10 
 Kv =  4 
 Nlv=  12
 Ne =  2
 Kl4=  1 
 Nc4=999 
Crt4= 0.0001 
kout= 0 
Ncpt= 0 
Cut0= 0.0001 
N_it= 50
Kbrt= 2
     0.1002     0.2002    -0.2102     0.2104     0.3002    -0.3102
     0.3104    -0.3204     0.3206     0.4002    -0.4102     0.4104

    