Ncor= 2
NsvNR49
mult= 2
 NE = 8

L:   2s2   2p6 
L:   2s2   2p5   3p1 

   2s  0  2   2p  0  6   3s  0  2   3p  0  6   3d  0  6   4s  0  2
   4p  0  6   4d  0  6   4f  0  6   5s  0  2   5p  0  6   5d  0  6
   5f  0  6   5g  0  6   6s  0  2   6p  0  6   6d  0  6   6f  0  6
   6g  0  6   7s  0  2   7p  0  6   7d  0  6   7f  0  6   7g  0  6
   8s  0  2   8p  0  2   8d  0  2   8f  0  2   8g  0  2   9s  0  2
   9p  0  2   9d  0  2   9f  0  2   9g  0  2  10s  0  2  10p  0  2
  10d  0  2  10f  0  2  10g  0  2  11s  0  2  11p  0  2  11d  0  2
  11f  0  2  11g  0  2  12s  0  2  12p  0  2  12d  0  2  12f  0  2
  12g  0  2        
>>>>>>>>>>>>> Head of the file CONF.INP >>>>>>>>>>>>>>>>>>>>>>>>
  Fe16+ even
  Z = 26.0
 Am = 56.0
  J = 0.0
 Jm = 0.0
 Nso=  1
 Nc =   10 
 Kv =  4 
 Nlv=  5
 Ne =  8
 Kl4=  1 
 Nc4=999 
Crt4= 0.0001 
kout= 0 
Ncpt= 0 
Cut0= 0.0001 
N_it= 100
Kbrt= 2
     0.1002
    