 Fe16+
 Z  = 26.0
 Am = 56.0
 Nso=    4 # number of core orbitals (defines DF operator)
 Nv =  192 # number of valence & virtual orbitals
 Ksg=    1 # defines Hamiltonian: 1-DF, 3-DF+Breit
 Kdg=    0 # diagonalization of Hamiltonian (0=no,1,2=yes)
 orb= 3s 1 # first orbital for diagonalization
 Kkin    1 # kinetic balance (0,1,or 2)
 orb= 5s 1 # first orbital to apply kin.bal.
 orb= 2p 3 # last frozen orbital
kout=    0 # detail rate in the output
kbrt=    2 # 0,1,2 - Coulomb, Gaunt, Breit
----------------------------------------------------------
     0.1002     0.2002    -0.2102     0.2104

  1  0.3001
  2 -0.3101
  3  0.3101
  4 -0.3201
  5  0.3201
  6  0.4001  3  0.4001
  7 -0.4101  3 -0.4101
  8  0.4101  3  0.4101
  9 -0.4201  3 -0.4201
 10  0.4201  3  0.4201
 11 -0.4301  3 -0.4301
 12  0.4301  3  0.4301
 13 -0.5401    -0.3101
 14  0.5401     0.3101
 
 15  0.5001
 16 -0.5101
 17  0.5101
 18 -0.5201
 19  0.5201
 20 -0.5301
 21  0.5301
 
 22  0.6001
 23 -0.6101
 24  0.6101
 25 -0.6201
 26  0.6201
 27 -0.6301
 28  0.6301
 29 -0.6401
 30  0.6401
 
 31  0.7001
 32 -0.7101
 33  0.7101
 34 -0.7201
 35  0.7201
 36 -0.7301
 37  0.7301
 38 -0.7401
 39  0.7401
 
 40  0.8001
 41 -0.8101
 42  0.8101
 43 -0.8201
 44  0.8201
 45 -0.8301
 46  0.8301
 47 -0.8401
 48  0.8401
 
 49  0.9001
 50 -0.9101
 51  0.9101
 52 -0.9201
 53  0.9201
 54 -0.9301
 55  0.9301
 56 -0.9401
 57  0.9401
 
 58  1.0001
 59 -1.0101
 60  1.0101
 61 -1.0201
 62  1.0201
 63 -1.0301
 64  1.0301
 65 -1.0401
 66  1.0401
 
 67  1.1001
 68 -1.1101
 69  1.1101
 70 -1.1201
 71  1.1201
 72 -1.1301
 73  1.1301
 74 -1.1401
 75  1.1401
 
 76  1.2001
 77 -1.2101
 78  1.2101
 79 -1.2201
 80  1.2201
 81 -1.2301
 82  1.2301
 83 -1.2401
 84  1.2401
 
 85  1.3001
 86 -1.3101
 87  1.3101
 88 -1.3201
 89  1.3201
 90 -1.3301
 91  1.3301
 92 -1.3401
 93  1.3401
 
 94  1.4001
 95 -1.4101
 96  1.4101
 97 -1.4201
 98  1.4201
 99 -1.4301
100  1.4301
101 -1.4401
102  1.4401
 
103  1.5001
104 -1.5101
105  1.5101
106 -1.5201
107  1.5201
108 -1.5301
109  1.5301
110 -1.5401
111  1.5401
 
112  1.6001
113 -1.6101
114  1.6101
115 -1.6201
116  1.6201
117 -1.6301
118  1.6301
119 -1.6401
120  1.6401
 
121  1.7001
122 -1.7101
123  1.7101
124 -1.7201
125  1.7201
126 -1.7301
127  1.7301
128 -1.7401
129  1.7401
 
130  1.8001
131 -1.8101
132  1.8101
133 -1.8201
134  1.8201
135 -1.8301
136  1.8301
137 -1.8401
138  1.8401
 
139  1.9001
140 -1.9101
141  1.9101
142 -1.9201
143  1.9201
144 -1.9301
145  1.9301
146 -1.9401
147  1.9401
 
148  2.0001
149 -2.0101
150  2.0101
151 -2.0201
152  2.0201
153 -2.0301
154  2.0301
155 -2.0401
156  2.0401
 
157  2.1001
158 -2.1101
159  2.1101
160 -2.1201
161  2.1201
162 -2.1301
163  2.1301
164 -2.1401
165  2.1401
 
166  2.2001
167 -2.2101
168  2.2101
169 -2.2201
170  2.2201
171 -2.2301
172  2.2301
173 -2.2401
174  2.2401
 
175  2.3001
176 -2.3101
177  2.3101
178 -2.3201
179  2.3201
180 -2.3301
181  2.3301
182 -2.3401
183  2.3401
 
184  2.4001
185 -2.4101
186  2.4101
187 -2.4201
188  2.4201
189 -2.4301
190  2.4301
191 -2.4401
192  2.4401
>>>>>>>>>> END <<<<<<<<<<