  Sr even                                                             
  Z = 38.0
 Am = 88.0
  J =  1.0
 Jm =  1.0
 Nso=  12
 Nc =   3763
 Kv =  4                                                                   
 Nlv=  24                                                                  
 Ne =  2                                                                   
 Kl4=  1                                                                   
 Nc4=999                                                                   
Crt4= 0.0001                                                               
kout= 0                                                                    
Ncpt=     0     #
Cut0= 0.0001                                                               
N_it= 50                                                                   
Kbrt= 2                                                                    
     0.1002     0.2002    -0.2102     0.2104     0.3002    -0.3102
     0.3104    -0.3204     0.3206     0.4002    -0.4102     0.4104
   1
   1 0.5002
   2
   2 0.5001    -0.4201
   3 0.5001     0.4201
   3
   4 0.5001     0.6001
   4
   5 0.5001    -0.5201
   6 0.5001     0.5201
   5
   7 0.5001     0.7001
   6
   8 0.5001    -0.6201
   9 0.5001     0.6201
   7
  10 0.5001    -0.5401
  11 0.5001     0.5401
   8
  12 0.5001    -0.6401
  13 0.5001     0.6401
   9
  14 0.5001    -0.7201
  15 0.5001     0.7201
  10
  16 0.5001    -0.7401
  17 0.5001     0.7401
  11
  18 0.5001     0.8001
  12
  19 0.5001    -0.8201
  20 0.5001     0.8201
  13
  21 0.5001    -0.8401
  22 0.5001     0.8401
  14
  23 0.5001     0.9001
  15
  24 0.5001    -0.9201
  25 0.5001     0.9201
  16
  26 0.5001    -0.9401
  27 0.5001     0.9401
  17
  28 0.5001     1.0001
  18
  29 0.5001    -1.0201
  30 0.5001     1.0201
  19
  31 0.5001    -1.0401
  32 0.5001     1.0401
  20
  33 0.5001     1.1001
  21
  34 0.5001    -1.1201
  35 0.5001     1.1201
  22
  36 0.5001    -1.1401
  37 0.5001     1.1401
  23
  38 0.5001     1.2001
  24
  39 0.5001    -1.2201
  40 0.5001     1.2201
  25
  41 0.5001    -1.2401
  42 0.5001     1.2401
  26
  43 0.5001     1.3001
  27
  44 0.5001    -1.3201
  45 0.5001     1.3201
  28
  46 0.5001    -1.3401
  47 0.5001     1.3401
  29
  48 0.5001     1.4001
  30
  49 0.5001    -1.4201
  50 0.5001     1.4201
  31
  51 0.5001    -1.4401
  52 0.5001     1.4401
  32
  53 0.5001     1.5001
  33
  54 0.5001    -1.5201
  55 0.5001     1.5201
  34
  56 0.5001    -1.5401
  57 0.5001     1.5401
  35
  58 0.5001     1.6001
  36
  59 0.5001    -1.6201
  60 0.5001     1.6201
  37
  61 0.5001    -1.6401
  62 0.5001     1.6401
  38
  63 0.5001     1.7001
  39
  64 0.5001    -1.7201
  65 0.5001     1.7201
  40
  66 0.5001    -1.7401
  67 0.5001     1.7401
  41
  68-0.5102
  69-0.5101     0.5101
  70 0.5102
  42
  71-0.5101    -0.6101
  72-0.5101     0.6101
  73 0.5101    -0.6101
  74 0.5101     0.6101
  43
  75-0.5101    -0.7101
  76-0.5101     0.7101
  77 0.5101    -0.7101
  78 0.5101     0.7101
  44
  79-0.5101    -0.4301
  80-0.5101     0.4301
  81 0.5101    -0.4301
  82 0.5101     0.4301
  45
  83-0.5101    -0.5301
  84-0.5101     0.5301
  85 0.5101    -0.5301
  86 0.5101     0.5301
  46
  87-0.5101    -0.6301
  88-0.5101     0.6301
  89 0.5101    -0.6301
  90 0.5101     0.6301
  47
  91-0.5101    -0.7301
  92-0.5101     0.7301
  93 0.5101    -0.7301
  94 0.5101     0.7301
  48
  95-0.5101    -0.8101
  96-0.5101     0.8101
  97 0.5101    -0.8101
  98 0.5101     0.8101
  49
  99-0.5101    -0.8301
 100-0.5101     0.8301
 101 0.5101    -0.8301
 102 0.5101     0.8301
  50
 103-0.5101    -0.9101
 104-0.5101     0.9101
 105 0.5101    -0.9101
 106 0.5101     0.9101
  51
 107-0.5101    -0.9301
 108-0.5101     0.9301
 109 0.5101    -0.9301
 110 0.5101     0.9301
  52
 111-0.5101    -1.0101
 112-0.5101     1.0101
 113 0.5101    -1.0101
 114 0.5101     1.0101
  53
 115-0.5101    -1.0301
 116-0.5101     1.0301
 117 0.5101    -1.0301
 118 0.5101     1.0301
  54
 119-0.5101    -1.1101
 120-0.5101     1.1101
 121 0.5101    -1.1101
 122 0.5101     1.1101
  55
 123-0.5101    -1.1301
 124-0.5101     1.1301
 125 0.5101    -1.1301
 126 0.5101     1.1301
  56
 127-0.5101    -1.2101
 128-0.5101     1.2101
 129 0.5101    -1.2101
 130 0.5101     1.2101
  57
 131-0.5101    -1.2301
 132-0.5101     1.2301
 133 0.5101    -1.2301
 134 0.5101     1.2301
  58
 135-0.5101    -1.3101
 136-0.5101     1.3101
 137 0.5101    -1.3101
 138 0.5101     1.3101
  59
 139-0.5101    -1.3301
 140-0.5101     1.3301
 141 0.5101    -1.3301
 142 0.5101     1.3301
  60
 143-0.5101    -1.4101
 144-0.5101     1.4101
 145 0.5101    -1.4101
 146 0.5101     1.4101
  61
 147-0.5101    -1.4301
 148-0.5101     1.4301
 149 0.5101    -1.4301
 150 0.5101     1.4301
  62
 151-0.5101    -1.5101
 152-0.5101     1.5101
 153 0.5101    -1.5101
 154 0.5101     1.5101
  63
 155-0.5101    -1.5301
 156-0.5101     1.5301
 157 0.5101    -1.5301
 158 0.5101     1.5301
  64
 159-0.5101    -1.6101
 160-0.5101     1.6101
 161 0.5101    -1.6101
 162 0.5101     1.6101
  65
 163-0.5101    -1.6301
 164-0.5101     1.6301
 165 0.5101    -1.6301
 166 0.5101     1.6301
  66
 167-0.5101    -1.7101
 168-0.5101     1.7101
 169 0.5101    -1.7101
 170 0.5101     1.7101
  67
 171-0.5101    -1.7301
 172-0.5101     1.7301
 173 0.5101    -1.7301
 174 0.5101     1.7301
  68
 175-0.4202
 176-0.4201     0.4201
 177 0.4202
  69
 178-0.4201     0.6001
 179 0.4201     0.6001
  70
 180-0.4201    -0.5201
 181-0.4201     0.5201
 182 0.4201    -0.5201
 183 0.4201     0.5201
  71
 184-0.4201     0.7001
 185 0.4201     0.7001
  72
 186-0.4201    -0.6201
 187-0.4201     0.6201
 188 0.4201    -0.6201
 189 0.4201     0.6201
  73
 190-0.4201    -0.5401
 191-0.4201     0.5401
 192 0.4201    -0.5401
 193 0.4201     0.5401
  74
 194-0.4201    -0.6401
 195-0.4201     0.6401
 196 0.4201    -0.6401
 197 0.4201     0.6401
  75
 198-0.4201    -0.7201
 199-0.4201     0.7201
 200 0.4201    -0.7201
 201 0.4201     0.7201
  76
 202-0.4201    -0.7401
 203-0.4201     0.7401
 204 0.4201    -0.7401
 205 0.4201     0.7401
  77
 206-0.4201     0.8001
 207 0.4201     0.8001
  78
 208-0.4201    -0.8201
 209-0.4201     0.8201
 210 0.4201    -0.8201
 211 0.4201     0.8201
  79
 212-0.4201    -0.8401
 213-0.4201     0.8401
 214 0.4201    -0.8401
 215 0.4201     0.8401
  80
 216-0.4201     0.9001
 217 0.4201     0.9001
  81
 218-0.4201    -0.9201
 219-0.4201     0.9201
 220 0.4201    -0.9201
 221 0.4201     0.9201
  82
 222-0.4201    -0.9401
 223-0.4201     0.9401
 224 0.4201    -0.9401
 225 0.4201     0.9401
  83
 226-0.4201     1.0001
 227 0.4201     1.0001
  84
 228-0.4201    -1.0201
 229-0.4201     1.0201
 230 0.4201    -1.0201
 231 0.4201     1.0201
  85
 232-0.4201    -1.0401
 233-0.4201     1.0401
 234 0.4201    -1.0401
 235 0.4201     1.0401
  86
 236-0.4201     1.1001
 237 0.4201     1.1001
  87
 238-0.4201    -1.1201
 239-0.4201     1.1201
 240 0.4201    -1.1201
 241 0.4201     1.1201
  88
 242-0.4201    -1.1401
 243-0.4201     1.1401
 244 0.4201    -1.1401
 245 0.4201     1.1401
  89
 246-0.4201     1.2001
 247 0.4201     1.2001
  90
 248-0.4201    -1.2201
 249-0.4201     1.2201
 250 0.4201    -1.2201
 251 0.4201     1.2201
  91
 252-0.4201    -1.2401
 253-0.4201     1.2401
 254 0.4201    -1.2401
 255 0.4201     1.2401
  92
 256-0.4201     1.3001
 257 0.4201     1.3001
  93
 258-0.4201    -1.3201
 259-0.4201     1.3201
 260 0.4201    -1.3201
 261 0.4201     1.3201
  94
 262-0.4201    -1.3401
 263-0.4201     1.3401
 264 0.4201    -1.3401
 265 0.4201     1.3401
  95
 266-0.4201     1.4001
 267 0.4201     1.4001
  96
 268-0.4201    -1.4201
 269-0.4201     1.4201
 270 0.4201    -1.4201
 271 0.4201     1.4201
  97
 272-0.4201    -1.4401
 273-0.4201     1.4401
 274 0.4201    -1.4401
 275 0.4201     1.4401
  98
 276-0.4201     1.5001
 277 0.4201     1.5001
  99
 278-0.4201    -1.5201
 279-0.4201     1.5201
 280 0.4201    -1.5201
 281 0.4201     1.5201
 100
 282-0.4201    -1.5401
 283-0.4201     1.5401
 284 0.4201    -1.5401
 285 0.4201     1.5401
 101
 286-0.4201     1.6001
 287 0.4201     1.6001
 102
 288-0.4201    -1.6201
 289-0.4201     1.6201
 290 0.4201    -1.6201
 291 0.4201     1.6201
 103
 292-0.4201    -1.6401
 293-0.4201     1.6401
 294 0.4201    -1.6401
 295 0.4201     1.6401
 104
 296-0.4201     1.7001
 297 0.4201     1.7001
 105
 298-0.4201    -1.7201
 299-0.4201     1.7201
 300 0.4201    -1.7201
 301 0.4201     1.7201
 106
 302-0.4201    -1.7401
 303-0.4201     1.7401
 304 0.4201    -1.7401
 305 0.4201     1.7401
 107
 306 0.6002
 108
 307 0.6001    -0.5201
 308 0.6001     0.5201
 109
 309 0.6001     0.7001
 110
 310 0.6001    -0.6201
 311 0.6001     0.6201
 111
 312 0.6001    -0.5401
 313 0.6001     0.5401
 112
 314 0.6001    -0.6401
 315 0.6001     0.6401
 113
 316 0.6001    -0.7201
 317 0.6001     0.7201
 114
 318 0.6001    -0.7401
 319 0.6001     0.7401
 115
 320 0.6001     0.8001
 116
 321 0.6001    -0.8201
 322 0.6001     0.8201
 117
 323 0.6001    -0.8401
 324 0.6001     0.8401
 118
 325 0.6001     0.9001
 119
 326 0.6001    -0.9201
 327 0.6001     0.9201
 120
 328 0.6001    -0.9401
 329 0.6001     0.9401
 121
 330 0.6001     1.0001
 122
 331 0.6001    -1.0201
 332 0.6001     1.0201
 123
 333 0.6001    -1.0401
 334 0.6001     1.0401
 124
 335 0.6001     1.1001
 125
 336 0.6001    -1.1201
 337 0.6001     1.1201
 126
 338 0.6001    -1.1401
 339 0.6001     1.1401
 127
 340 0.6001     1.2001
 128
 341 0.6001    -1.2201
 342 0.6001     1.2201
 129
 343 0.6001    -1.2401
 344 0.6001     1.2401
 130
 345 0.6001     1.3001
 131
 346 0.6001    -1.3201
 347 0.6001     1.3201
 132
 348 0.6001    -1.3401
 349 0.6001     1.3401
 133
 350 0.6001     1.4001
 134
 351 0.6001    -1.4201
 352 0.6001     1.4201
 135
 353 0.6001    -1.4401
 354 0.6001     1.4401
 136
 355 0.6001     1.5001
 137
 356 0.6001    -1.5201
 357 0.6001     1.5201
 138
 358 0.6001    -1.5401
 359 0.6001     1.5401
 139
 360 0.6001     1.6001
 140
 361 0.6001    -1.6201
 362 0.6001     1.6201
 141
 363 0.6001    -1.6401
 364 0.6001     1.6401
 142
 365 0.6001     1.7001
 143
 366 0.6001    -1.7201
 367 0.6001     1.7201
 144
 368 0.6001    -1.7401
 369 0.6001     1.7401
 145
 370-0.6102
 371-0.6101     0.6101
 372 0.6102
 146
 373-0.6101    -0.7101
 374-0.6101     0.7101
 375 0.6101    -0.7101
 376 0.6101     0.7101
 147
 377-0.6101    -0.4301
 378-0.6101     0.4301
 379 0.6101    -0.4301
 380 0.6101     0.4301
 148
 381-0.6101    -0.5301
 382-0.6101     0.5301
 383 0.6101    -0.5301
 384 0.6101     0.5301
 149
 385-0.6101    -0.6301
 386-0.6101     0.6301
 387 0.6101    -0.6301
 388 0.6101     0.6301
 150
 389-0.6101    -0.7301
 390-0.6101     0.7301
 391 0.6101    -0.7301
 392 0.6101     0.7301
 151
 393-0.6101    -0.8101
 394-0.6101     0.8101
 395 0.6101    -0.8101
 396 0.6101     0.8101
 152
 397-0.6101    -0.8301
 398-0.6101     0.8301
 399 0.6101    -0.8301
 400 0.6101     0.8301
 153
 401-0.6101    -0.9101
 402-0.6101     0.9101
 403 0.6101    -0.9101
 404 0.6101     0.9101
 154
 405-0.6101    -0.9301
 406-0.6101     0.9301
 407 0.6101    -0.9301
 408 0.6101     0.9301
 155
 409-0.6101    -1.0101
 410-0.6101     1.0101
 411 0.6101    -1.0101
 412 0.6101     1.0101
 156
 413-0.6101    -1.0301
 414-0.6101     1.0301
 415 0.6101    -1.0301
 416 0.6101     1.0301
 157
 417-0.6101    -1.1101
 418-0.6101     1.1101
 419 0.6101    -1.1101
 420 0.6101     1.1101
 158
 421-0.6101    -1.1301
 422-0.6101     1.1301
 423 0.6101    -1.1301
 424 0.6101     1.1301
 159
 425-0.6101    -1.2101
 426-0.6101     1.2101
 427 0.6101    -1.2101
 428 0.6101     1.2101
 160
 429-0.6101    -1.2301
 430-0.6101     1.2301
 431 0.6101    -1.2301
 432 0.6101     1.2301
 161
 433-0.6101    -1.3101
 434-0.6101     1.3101
 435 0.6101    -1.3101
 436 0.6101     1.3101
 162
 437-0.6101    -1.3301
 438-0.6101     1.3301
 439 0.6101    -1.3301
 440 0.6101     1.3301
 163
 441-0.6101    -1.4101
 442-0.6101     1.4101
 443 0.6101    -1.4101
 444 0.6101     1.4101
 164
 445-0.6101    -1.4301
 446-0.6101     1.4301
 447 0.6101    -1.4301
 448 0.6101     1.4301
 165
 449-0.6101    -1.5101
 450-0.6101     1.5101
 451 0.6101    -1.5101
 452 0.6101     1.5101
 166
 453-0.6101    -1.5301
 454-0.6101     1.5301
 455 0.6101    -1.5301
 456 0.6101     1.5301
 167
 457-0.6101    -1.6101
 458-0.6101     1.6101
 459 0.6101    -1.6101
 460 0.6101     1.6101
 168
 461-0.6101    -1.6301
 462-0.6101     1.6301
 463 0.6101    -1.6301
 464 0.6101     1.6301
 169
 465-0.6101    -1.7101
 466-0.6101     1.7101
 467 0.6101    -1.7101
 468 0.6101     1.7101
 170
 469-0.6101    -1.7301
 470-0.6101     1.7301
 471 0.6101    -1.7301
 472 0.6101     1.7301
 171
 473-0.5202
 474-0.5201     0.5201
 475 0.5202
 172
 476-0.5201     0.7001
 477 0.5201     0.7001
 173
 478-0.5201    -0.6201
 479-0.5201     0.6201
 480 0.5201    -0.6201
 481 0.5201     0.6201
 174
 482-0.5201    -0.5401
 483-0.5201     0.5401
 484 0.5201    -0.5401
 485 0.5201     0.5401
 175
 486-0.5201    -0.6401
 487-0.5201     0.6401
 488 0.5201    -0.6401
 489 0.5201     0.6401
 176
 490-0.5201    -0.7201
 491-0.5201     0.7201
 492 0.5201    -0.7201
 493 0.5201     0.7201
 177
 494-0.5201    -0.7401
 495-0.5201     0.7401
 496 0.5201    -0.7401
 497 0.5201     0.7401
 178
 498-0.5201     0.8001
 499 0.5201     0.8001
 179
 500-0.5201    -0.8201
 501-0.5201     0.8201
 502 0.5201    -0.8201
 503 0.5201     0.8201
 180
 504-0.5201    -0.8401
 505-0.5201     0.8401
 506 0.5201    -0.8401
 507 0.5201     0.8401
 181
 508-0.5201     0.9001
 509 0.5201     0.9001
 182
 510-0.5201    -0.9201
 511-0.5201     0.9201
 512 0.5201    -0.9201
 513 0.5201     0.9201
 183
 514-0.5201    -0.9401
 515-0.5201     0.9401
 516 0.5201    -0.9401
 517 0.5201     0.9401
 184
 518-0.5201     1.0001
 519 0.5201     1.0001
 185
 520-0.5201    -1.0201
 521-0.5201     1.0201
 522 0.5201    -1.0201
 523 0.5201     1.0201
 186
 524-0.5201    -1.0401
 525-0.5201     1.0401
 526 0.5201    -1.0401
 527 0.5201     1.0401
 187
 528-0.5201     1.1001
 529 0.5201     1.1001
 188
 530-0.5201    -1.1201
 531-0.5201     1.1201
 532 0.5201    -1.1201
 533 0.5201     1.1201
 189
 534-0.5201    -1.1401
 535-0.5201     1.1401
 536 0.5201    -1.1401
 537 0.5201     1.1401
 190
 538-0.5201     1.2001
 539 0.5201     1.2001
 191
 540-0.5201    -1.2201
 541-0.5201     1.2201
 542 0.5201    -1.2201
 543 0.5201     1.2201
 192
 544-0.5201    -1.2401
 545-0.5201     1.2401
 546 0.5201    -1.2401
 547 0.5201     1.2401
 193
 548-0.5201     1.3001
 549 0.5201     1.3001
 194
 550-0.5201    -1.3201
 551-0.5201     1.3201
 552 0.5201    -1.3201
 553 0.5201     1.3201
 195
 554-0.5201    -1.3401
 555-0.5201     1.3401
 556 0.5201    -1.3401
 557 0.5201     1.3401
 196
 558-0.5201     1.4001
 559 0.5201     1.4001
 197
 560-0.5201    -1.4201
 561-0.5201     1.4201
 562 0.5201    -1.4201
 563 0.5201     1.4201
 198
 564-0.5201    -1.4401
 565-0.5201     1.4401
 566 0.5201    -1.4401
 567 0.5201     1.4401
 199
 568-0.5201     1.5001
 569 0.5201     1.5001
 200
 570-0.5201    -1.5201
 571-0.5201     1.5201
 572 0.5201    -1.5201
 573 0.5201     1.5201
 201
 574-0.5201    -1.5401
 575-0.5201     1.5401
 576 0.5201    -1.5401
 577 0.5201     1.5401
 202
 578-0.5201     1.6001
 579 0.5201     1.6001
 203
 580-0.5201    -1.6201
 581-0.5201     1.6201
 582 0.5201    -1.6201
 583 0.5201     1.6201
 204
 584-0.5201    -1.6401
 585-0.5201     1.6401
 586 0.5201    -1.6401
 587 0.5201     1.6401
 205
 588-0.5201     1.7001
 589 0.5201     1.7001
 206
 590-0.5201    -1.7201
 591-0.5201     1.7201
 592 0.5201    -1.7201
 593 0.5201     1.7201
 207
 594-0.5201    -1.7401
 595-0.5201     1.7401
 596 0.5201    -1.7401
 597 0.5201     1.7401
 208
 598 0.7002
 209
 599 0.7001    -0.6201
 600 0.7001     0.6201
 210
 601 0.7001    -0.5401
 602 0.7001     0.5401
 211
 603 0.7001    -0.6401
 604 0.7001     0.6401
 212
 605 0.7001    -0.7201
 606 0.7001     0.7201
 213
 607 0.7001    -0.7401
 608 0.7001     0.7401
 214
 609 0.7001     0.8001
 215
 610 0.7001    -0.8201
 611 0.7001     0.8201
 216
 612 0.7001    -0.8401
 613 0.7001     0.8401
 217
 614 0.7001     0.9001
 218
 615 0.7001    -0.9201
 616 0.7001     0.9201
 219
 617 0.7001    -0.9401
 618 0.7001     0.9401
 220
 619 0.7001     1.0001
 221
 620 0.7001    -1.0201
 621 0.7001     1.0201
 222
 622 0.7001    -1.0401
 623 0.7001     1.0401
 223
 624 0.7001     1.1001
 224
 625 0.7001    -1.1201
 626 0.7001     1.1201
 225
 627 0.7001    -1.1401
 628 0.7001     1.1401
 226
 629 0.7001     1.2001
 227
 630 0.7001    -1.2201
 631 0.7001     1.2201
 228
 632 0.7001    -1.2401
 633 0.7001     1.2401
 229
 634 0.7001     1.3001
 230
 635 0.7001    -1.3201
 636 0.7001     1.3201
 231
 637 0.7001    -1.3401
 638 0.7001     1.3401
 232
 639 0.7001     1.4001
 233
 640 0.7001    -1.4201
 641 0.7001     1.4201
 234
 642 0.7001    -1.4401
 643 0.7001     1.4401
 235
 644 0.7001     1.5001
 236
 645 0.7001    -1.5201
 646 0.7001     1.5201
 237
 647 0.7001    -1.5401
 648 0.7001     1.5401
 238
 649 0.7001     1.6001
 239
 650 0.7001    -1.6201
 651 0.7001     1.6201
 240
 652 0.7001    -1.6401
 653 0.7001     1.6401
 241
 654 0.7001     1.7001
 242
 655 0.7001    -1.7201
 656 0.7001     1.7201
 243
 657 0.7001    -1.7401
 658 0.7001     1.7401
 244
 659-0.7102
 660-0.7101     0.7101
 661 0.7102
 245
 662-0.7101    -0.4301
 663-0.7101     0.4301
 664 0.7101    -0.4301
 665 0.7101     0.4301
 246
 666-0.7101    -0.5301
 667-0.7101     0.5301
 668 0.7101    -0.5301
 669 0.7101     0.5301
 247
 670-0.7101    -0.6301
 671-0.7101     0.6301
 672 0.7101    -0.6301
 673 0.7101     0.6301
 248
 674-0.7101    -0.7301
 675-0.7101     0.7301
 676 0.7101    -0.7301
 677 0.7101     0.7301
 249
 678-0.7101    -0.8101
 679-0.7101     0.8101
 680 0.7101    -0.8101
 681 0.7101     0.8101
 250
 682-0.7101    -0.8301
 683-0.7101     0.8301
 684 0.7101    -0.8301
 685 0.7101     0.8301
 251
 686-0.7101    -0.9101
 687-0.7101     0.9101
 688 0.7101    -0.9101
 689 0.7101     0.9101
 252
 690-0.7101    -0.9301
 691-0.7101     0.9301
 692 0.7101    -0.9301
 693 0.7101     0.9301
 253
 694-0.7101    -1.0101
 695-0.7101     1.0101
 696 0.7101    -1.0101
 697 0.7101     1.0101
 254
 698-0.7101    -1.0301
 699-0.7101     1.0301
 700 0.7101    -1.0301
 701 0.7101     1.0301
 255
 702-0.7101    -1.1101
 703-0.7101     1.1101
 704 0.7101    -1.1101
 705 0.7101     1.1101
 256
 706-0.7101    -1.1301
 707-0.7101     1.1301
 708 0.7101    -1.1301
 709 0.7101     1.1301
 257
 710-0.7101    -1.2101
 711-0.7101     1.2101
 712 0.7101    -1.2101
 713 0.7101     1.2101
 258
 714-0.7101    -1.2301
 715-0.7101     1.2301
 716 0.7101    -1.2301
 717 0.7101     1.2301
 259
 718-0.7101    -1.3101
 719-0.7101     1.3101
 720 0.7101    -1.3101
 721 0.7101     1.3101
 260
 722-0.7101    -1.3301
 723-0.7101     1.3301
 724 0.7101    -1.3301
 725 0.7101     1.3301
 261
 726-0.7101    -1.4101
 727-0.7101     1.4101
 728 0.7101    -1.4101
 729 0.7101     1.4101
 262
 730-0.7101    -1.4301
 731-0.7101     1.4301
 732 0.7101    -1.4301
 733 0.7101     1.4301
 263
 734-0.7101    -1.5101
 735-0.7101     1.5101
 736 0.7101    -1.5101
 737 0.7101     1.5101
 264
 738-0.7101    -1.5301
 739-0.7101     1.5301
 740 0.7101    -1.5301
 741 0.7101     1.5301
 265
 742-0.7101    -1.6101
 743-0.7101     1.6101
 744 0.7101    -1.6101
 745 0.7101     1.6101
 266
 746-0.7101    -1.6301
 747-0.7101     1.6301
 748 0.7101    -1.6301
 749 0.7101     1.6301
 267
 750-0.7101    -1.7101
 751-0.7101     1.7101
 752 0.7101    -1.7101
 753 0.7101     1.7101
 268
 754-0.7101    -1.7301
 755-0.7101     1.7301
 756 0.7101    -1.7301
 757 0.7101     1.7301
 269
 758-0.6202
 759-0.6201     0.6201
 760 0.6202
 270
 761-0.6201    -0.5401
 762-0.6201     0.5401
 763 0.6201    -0.5401
 764 0.6201     0.5401
 271
 765-0.6201    -0.6401
 766-0.6201     0.6401
 767 0.6201    -0.6401
 768 0.6201     0.6401
 272
 769-0.6201    -0.7201
 770-0.6201     0.7201
 771 0.6201    -0.7201
 772 0.6201     0.7201
 273
 773-0.6201    -0.7401
 774-0.6201     0.7401
 775 0.6201    -0.7401
 776 0.6201     0.7401
 274
 777-0.6201     0.8001
 778 0.6201     0.8001
 275
 779-0.6201    -0.8201
 780-0.6201     0.8201
 781 0.6201    -0.8201
 782 0.6201     0.8201
 276
 783-0.6201    -0.8401
 784-0.6201     0.8401
 785 0.6201    -0.8401
 786 0.6201     0.8401
 277
 787-0.6201     0.9001
 788 0.6201     0.9001
 278
 789-0.6201    -0.9201
 790-0.6201     0.9201
 791 0.6201    -0.9201
 792 0.6201     0.9201
 279
 793-0.6201    -0.9401
 794-0.6201     0.9401
 795 0.6201    -0.9401
 796 0.6201     0.9401
 280
 797-0.6201     1.0001
 798 0.6201     1.0001
 281
 799-0.6201    -1.0201
 800-0.6201     1.0201
 801 0.6201    -1.0201
 802 0.6201     1.0201
 282
 803-0.6201    -1.0401
 804-0.6201     1.0401
 805 0.6201    -1.0401
 806 0.6201     1.0401
 283
 807-0.6201     1.1001
 808 0.6201     1.1001
 284
 809-0.6201    -1.1201
 810-0.6201     1.1201
 811 0.6201    -1.1201
 812 0.6201     1.1201
 285
 813-0.6201    -1.1401
 814-0.6201     1.1401
 815 0.6201    -1.1401
 816 0.6201     1.1401
 286
 817-0.6201     1.2001
 818 0.6201     1.2001
 287
 819-0.6201    -1.2201
 820-0.6201     1.2201
 821 0.6201    -1.2201
 822 0.6201     1.2201
 288
 823-0.6201    -1.2401
 824-0.6201     1.2401
 825 0.6201    -1.2401
 826 0.6201     1.2401
 289
 827-0.6201     1.3001
 828 0.6201     1.3001
 290
 829-0.6201    -1.3201
 830-0.6201     1.3201
 831 0.6201    -1.3201
 832 0.6201     1.3201
 291
 833-0.6201    -1.3401
 834-0.6201     1.3401
 835 0.6201    -1.3401
 836 0.6201     1.3401
 292
 837-0.6201     1.4001
 838 0.6201     1.4001
 293
 839-0.6201    -1.4201
 840-0.6201     1.4201
 841 0.6201    -1.4201
 842 0.6201     1.4201
 294
 843-0.6201    -1.4401
 844-0.6201     1.4401
 845 0.6201    -1.4401
 846 0.6201     1.4401
 295
 847-0.6201     1.5001
 848 0.6201     1.5001
 296
 849-0.6201    -1.5201
 850-0.6201     1.5201
 851 0.6201    -1.5201
 852 0.6201     1.5201
 297
 853-0.6201    -1.5401
 854-0.6201     1.5401
 855 0.6201    -1.5401
 856 0.6201     1.5401
 298
 857-0.6201     1.6001
 858 0.6201     1.6001
 299
 859-0.6201    -1.6201
 860-0.6201     1.6201
 861 0.6201    -1.6201
 862 0.6201     1.6201
 300
 863-0.6201    -1.6401
 864-0.6201     1.6401
 865 0.6201    -1.6401
 866 0.6201     1.6401
 301
 867-0.6201     1.7001
 868 0.6201     1.7001
 302
 869-0.6201    -1.7201
 870-0.6201     1.7201
 871 0.6201    -1.7201
 872 0.6201     1.7201
 303
 873-0.6201    -1.7401
 874-0.6201     1.7401
 875 0.6201    -1.7401
 876 0.6201     1.7401
 304
 877-0.4302
 878-0.4301     0.4301
 879 0.4302
 305
 880-0.4301    -0.5301
 881-0.4301     0.5301
 882 0.4301    -0.5301
 883 0.4301     0.5301
 306
 884-0.4301    -0.6301
 885-0.4301     0.6301
 886 0.4301    -0.6301
 887 0.4301     0.6301
 307
 888-0.4301    -0.7301
 889-0.4301     0.7301
 890 0.4301    -0.7301
 891 0.4301     0.7301
 308
 892-0.4301    -0.8101
 893-0.4301     0.8101
 894 0.4301    -0.8101
 895 0.4301     0.8101
 309
 896-0.4301    -0.8301
 897-0.4301     0.8301
 898 0.4301    -0.8301
 899 0.4301     0.8301
 310
 900-0.4301    -0.9101
 901-0.4301     0.9101
 902 0.4301    -0.9101
 903 0.4301     0.9101
 311
 904-0.4301    -0.9301
 905-0.4301     0.9301
 906 0.4301    -0.9301
 907 0.4301     0.9301
 312
 908-0.4301    -1.0101
 909-0.4301     1.0101
 910 0.4301    -1.0101
 911 0.4301     1.0101
 313
 912-0.4301    -1.0301
 913-0.4301     1.0301
 914 0.4301    -1.0301
 915 0.4301     1.0301
 314
 916-0.4301    -1.1101
 917-0.4301     1.1101
 918 0.4301    -1.1101
 919 0.4301     1.1101
 315
 920-0.4301    -1.1301
 921-0.4301     1.1301
 922 0.4301    -1.1301
 923 0.4301     1.1301
 316
 924-0.4301    -1.2101
 925-0.4301     1.2101
 926 0.4301    -1.2101
 927 0.4301     1.2101
 317
 928-0.4301    -1.2301
 929-0.4301     1.2301
 930 0.4301    -1.2301
 931 0.4301     1.2301
 318
 932-0.4301    -1.3101
 933-0.4301     1.3101
 934 0.4301    -1.3101
 935 0.4301     1.3101
 319
 936-0.4301    -1.3301
 937-0.4301     1.3301
 938 0.4301    -1.3301
 939 0.4301     1.3301
 320
 940-0.4301    -1.4101
 941-0.4301     1.4101
 942 0.4301    -1.4101
 943 0.4301     1.4101
 321
 944-0.4301    -1.4301
 945-0.4301     1.4301
 946 0.4301    -1.4301
 947 0.4301     1.4301
 322
 948-0.4301    -1.5101
 949-0.4301     1.5101
 950 0.4301    -1.5101
 951 0.4301     1.5101
 323
 952-0.4301    -1.5301
 953-0.4301     1.5301
 954 0.4301    -1.5301
 955 0.4301     1.5301
 324
 956-0.4301    -1.6101
 957-0.4301     1.6101
 958 0.4301    -1.6101
 959 0.4301     1.6101
 325
 960-0.4301    -1.6301
 961-0.4301     1.6301
 962 0.4301    -1.6301
 963 0.4301     1.6301
 326
 964-0.4301    -1.7101
 965-0.4301     1.7101
 966 0.4301    -1.7101
 967 0.4301     1.7101
 327
 968-0.4301    -1.7301
 969-0.4301     1.7301
 970 0.4301    -1.7301
 971 0.4301     1.7301
 328
 972-0.5302
 973-0.5301     0.5301
 974 0.5302
 329
 975-0.5301    -0.6301
 976-0.5301     0.6301
 977 0.5301    -0.6301
 978 0.5301     0.6301
 330
 979-0.5301    -0.7301
 980-0.5301     0.7301
 981 0.5301    -0.7301
 982 0.5301     0.7301
 331
 983-0.5301    -0.8101
 984-0.5301     0.8101
 985 0.5301    -0.8101
 986 0.5301     0.8101
 332
 987-0.5301    -0.8301
 988-0.5301     0.8301
 989 0.5301    -0.8301
 990 0.5301     0.8301
 333
 991-0.5301    -0.9101
 992-0.5301     0.9101
 993 0.5301    -0.9101
 994 0.5301     0.9101
 334
 995-0.5301    -0.9301
 996-0.5301     0.9301
 997 0.5301    -0.9301
 998 0.5301     0.9301
 335
 999-0.5301    -1.0101
1000-0.5301     1.0101
1001 0.5301    -1.0101
1002 0.5301     1.0101
 336
1003-0.5301    -1.0301
1004-0.5301     1.0301
1005 0.5301    -1.0301
1006 0.5301     1.0301
 337
1007-0.5301    -1.1101
1008-0.5301     1.1101
1009 0.5301    -1.1101
1010 0.5301     1.1101
 338
1011-0.5301    -1.1301
1012-0.5301     1.1301
1013 0.5301    -1.1301
1014 0.5301     1.1301
 339
1015-0.5301    -1.2101
1016-0.5301     1.2101
1017 0.5301    -1.2101
1018 0.5301     1.2101
 340
1019-0.5301    -1.2301
1020-0.5301     1.2301
1021 0.5301    -1.2301
1022 0.5301     1.2301
 341
1023-0.5301    -1.3101
1024-0.5301     1.3101
1025 0.5301    -1.3101
1026 0.5301     1.3101
 342
1027-0.5301    -1.3301
1028-0.5301     1.3301
1029 0.5301    -1.3301
1030 0.5301     1.3301
 343
1031-0.5301    -1.4101
1032-0.5301     1.4101
1033 0.5301    -1.4101
1034 0.5301     1.4101
 344
1035-0.5301    -1.4301
1036-0.5301     1.4301
1037 0.5301    -1.4301
1038 0.5301     1.4301
 345
1039-0.5301    -1.5101
1040-0.5301     1.5101
1041 0.5301    -1.5101
1042 0.5301     1.5101
 346
1043-0.5301    -1.5301
1044-0.5301     1.5301
1045 0.5301    -1.5301
1046 0.5301     1.5301
 347
1047-0.5301    -1.6101
1048-0.5301     1.6101
1049 0.5301    -1.6101
1050 0.5301     1.6101
 348
1051-0.5301    -1.6301
1052-0.5301     1.6301
1053 0.5301    -1.6301
1054 0.5301     1.6301
 349
1055-0.5301    -1.7101
1056-0.5301     1.7101
1057 0.5301    -1.7101
1058 0.5301     1.7101
 350
1059-0.5301    -1.7301
1060-0.5301     1.7301
1061 0.5301    -1.7301
1062 0.5301     1.7301
 351
1063-0.5402
1064-0.5401     0.5401
1065 0.5402
 352
1066-0.5401    -0.6401
1067-0.5401     0.6401
1068 0.5401    -0.6401
1069 0.5401     0.6401
 353
1070-0.5401    -0.7201
1071-0.5401     0.7201
1072 0.5401    -0.7201
1073 0.5401     0.7201
 354
1074-0.5401    -0.7401
1075-0.5401     0.7401
1076 0.5401    -0.7401
1077 0.5401     0.7401
 355
1078-0.5401     0.8001
1079 0.5401     0.8001
 356
1080-0.5401    -0.8201
1081-0.5401     0.8201
1082 0.5401    -0.8201
1083 0.5401     0.8201
 357
1084-0.5401    -0.8401
1085-0.5401     0.8401
1086 0.5401    -0.8401
1087 0.5401     0.8401
 358
1088-0.5401     0.9001
1089 0.5401     0.9001
 359
1090-0.5401    -0.9201
1091-0.5401     0.9201
1092 0.5401    -0.9201
1093 0.5401     0.9201
 360
1094-0.5401    -0.9401
1095-0.5401     0.9401
1096 0.5401    -0.9401
1097 0.5401     0.9401
 361
1098-0.5401     1.0001
1099 0.5401     1.0001
 362
1100-0.5401    -1.0201
1101-0.5401     1.0201
1102 0.5401    -1.0201
1103 0.5401     1.0201
 363
1104-0.5401    -1.0401
1105-0.5401     1.0401
1106 0.5401    -1.0401
1107 0.5401     1.0401
 364
1108-0.5401     1.1001
1109 0.5401     1.1001
 365
1110-0.5401    -1.1201
1111-0.5401     1.1201
1112 0.5401    -1.1201
1113 0.5401     1.1201
 366
1114-0.5401    -1.1401
1115-0.5401     1.1401
1116 0.5401    -1.1401
1117 0.5401     1.1401
 367
1118-0.5401     1.2001
1119 0.5401     1.2001
 368
1120-0.5401    -1.2201
1121-0.5401     1.2201
1122 0.5401    -1.2201
1123 0.5401     1.2201
 369
1124-0.5401    -1.2401
1125-0.5401     1.2401
1126 0.5401    -1.2401
1127 0.5401     1.2401
 370
1128-0.5401     1.3001
1129 0.5401     1.3001
 371
1130-0.5401    -1.3201
1131-0.5401     1.3201
1132 0.5401    -1.3201
1133 0.5401     1.3201
 372
1134-0.5401    -1.3401
1135-0.5401     1.3401
1136 0.5401    -1.3401
1137 0.5401     1.3401
 373
1138-0.5401     1.4001
1139 0.5401     1.4001
 374
1140-0.5401    -1.4201
1141-0.5401     1.4201
1142 0.5401    -1.4201
1143 0.5401     1.4201
 375
1144-0.5401    -1.4401
1145-0.5401     1.4401
1146 0.5401    -1.4401
1147 0.5401     1.4401
 376
1148-0.5401     1.5001
1149 0.5401     1.5001
 377
1150-0.5401    -1.5201
1151-0.5401     1.5201
1152 0.5401    -1.5201
1153 0.5401     1.5201
 378
1154-0.5401    -1.5401
1155-0.5401     1.5401
1156 0.5401    -1.5401
1157 0.5401     1.5401
 379
1158-0.5401     1.6001
1159 0.5401     1.6001
 380
1160-0.5401    -1.6201
1161-0.5401     1.6201
1162 0.5401    -1.6201
1163 0.5401     1.6201
 381
1164-0.5401    -1.6401
1165-0.5401     1.6401
1166 0.5401    -1.6401
1167 0.5401     1.6401
 382
1168-0.5401     1.7001
1169 0.5401     1.7001
 383
1170-0.5401    -1.7201
1171-0.5401     1.7201
1172 0.5401    -1.7201
1173 0.5401     1.7201
 384
1174-0.5401    -1.7401
1175-0.5401     1.7401
1176 0.5401    -1.7401
1177 0.5401     1.7401
 385
1178-0.6302
1179-0.6301     0.6301
1180 0.6302
 386
1181-0.6301    -0.7301
1182-0.6301     0.7301
1183 0.6301    -0.7301
1184 0.6301     0.7301
 387
1185-0.6301    -0.8101
1186-0.6301     0.8101
1187 0.6301    -0.8101
1188 0.6301     0.8101
 388
1189-0.6301    -0.8301
1190-0.6301     0.8301
1191 0.6301    -0.8301
1192 0.6301     0.8301
 389
1193-0.6301    -0.9101
1194-0.6301     0.9101
1195 0.6301    -0.9101
1196 0.6301     0.9101
 390
1197-0.6301    -0.9301
1198-0.6301     0.9301
1199 0.6301    -0.9301
1200 0.6301     0.9301
 391
1201-0.6301    -1.0101
1202-0.6301     1.0101
1203 0.6301    -1.0101
1204 0.6301     1.0101
 392
1205-0.6301    -1.0301
1206-0.6301     1.0301
1207 0.6301    -1.0301
1208 0.6301     1.0301
 393
1209-0.6301    -1.1101
1210-0.6301     1.1101
1211 0.6301    -1.1101
1212 0.6301     1.1101
 394
1213-0.6301    -1.1301
1214-0.6301     1.1301
1215 0.6301    -1.1301
1216 0.6301     1.1301
 395
1217-0.6301    -1.2101
1218-0.6301     1.2101
1219 0.6301    -1.2101
1220 0.6301     1.2101
 396
1221-0.6301    -1.2301
1222-0.6301     1.2301
1223 0.6301    -1.2301
1224 0.6301     1.2301
 397
1225-0.6301    -1.3101
1226-0.6301     1.3101
1227 0.6301    -1.3101
1228 0.6301     1.3101
 398
1229-0.6301    -1.3301
1230-0.6301     1.3301
1231 0.6301    -1.3301
1232 0.6301     1.3301
 399
1233-0.6301    -1.4101
1234-0.6301     1.4101
1235 0.6301    -1.4101
1236 0.6301     1.4101
 400
1237-0.6301    -1.4301
1238-0.6301     1.4301
1239 0.6301    -1.4301
1240 0.6301     1.4301
 401
1241-0.6301    -1.5101
1242-0.6301     1.5101
1243 0.6301    -1.5101
1244 0.6301     1.5101
 402
1245-0.6301    -1.5301
1246-0.6301     1.5301
1247 0.6301    -1.5301
1248 0.6301     1.5301
 403
1249-0.6301    -1.6101
1250-0.6301     1.6101
1251 0.6301    -1.6101
1252 0.6301     1.6101
 404
1253-0.6301    -1.6301
1254-0.6301     1.6301
1255 0.6301    -1.6301
1256 0.6301     1.6301
 405
1257-0.6301    -1.7101
1258-0.6301     1.7101
1259 0.6301    -1.7101
1260 0.6301     1.7101
 406
1261-0.6301    -1.7301
1262-0.6301     1.7301
1263 0.6301    -1.7301
1264 0.6301     1.7301
 407
1265-0.6402
1266-0.6401     0.6401
1267 0.6402
 408
1268-0.6401    -0.7201
1269-0.6401     0.7201
1270 0.6401    -0.7201
1271 0.6401     0.7201
 409
1272-0.6401    -0.7401
1273-0.6401     0.7401
1274 0.6401    -0.7401
1275 0.6401     0.7401
 410
1276-0.6401     0.8001
1277 0.6401     0.8001
 411
1278-0.6401    -0.8201
1279-0.6401     0.8201
1280 0.6401    -0.8201
1281 0.6401     0.8201
 412
1282-0.6401    -0.8401
1283-0.6401     0.8401
1284 0.6401    -0.8401
1285 0.6401     0.8401
 413
1286-0.6401     0.9001
1287 0.6401     0.9001
 414
1288-0.6401    -0.9201
1289-0.6401     0.9201
1290 0.6401    -0.9201
1291 0.6401     0.9201
 415
1292-0.6401    -0.9401
1293-0.6401     0.9401
1294 0.6401    -0.9401
1295 0.6401     0.9401
 416
1296-0.6401     1.0001
1297 0.6401     1.0001
 417
1298-0.6401    -1.0201
1299-0.6401     1.0201
1300 0.6401    -1.0201
1301 0.6401     1.0201
 418
1302-0.6401    -1.0401
1303-0.6401     1.0401
1304 0.6401    -1.0401
1305 0.6401     1.0401
 419
1306-0.6401     1.1001
1307 0.6401     1.1001
 420
1308-0.6401    -1.1201
1309-0.6401     1.1201
1310 0.6401    -1.1201
1311 0.6401     1.1201
 421
1312-0.6401    -1.1401
1313-0.6401     1.1401
1314 0.6401    -1.1401
1315 0.6401     1.1401
 422
1316-0.6401     1.2001
1317 0.6401     1.2001
 423
1318-0.6401    -1.2201
1319-0.6401     1.2201
1320 0.6401    -1.2201
1321 0.6401     1.2201
 424
1322-0.6401    -1.2401
1323-0.6401     1.2401
1324 0.6401    -1.2401
1325 0.6401     1.2401
 425
1326-0.6401     1.3001
1327 0.6401     1.3001
 426
1328-0.6401    -1.3201
1329-0.6401     1.3201
1330 0.6401    -1.3201
1331 0.6401     1.3201
 427
1332-0.6401    -1.3401
1333-0.6401     1.3401
1334 0.6401    -1.3401
1335 0.6401     1.3401
 428
1336-0.6401     1.4001
1337 0.6401     1.4001
 429
1338-0.6401    -1.4201
1339-0.6401     1.4201
1340 0.6401    -1.4201
1341 0.6401     1.4201
 430
1342-0.6401    -1.4401
1343-0.6401     1.4401
1344 0.6401    -1.4401
1345 0.6401     1.4401
 431
1346-0.6401     1.5001
1347 0.6401     1.5001
 432
1348-0.6401    -1.5201
1349-0.6401     1.5201
1350 0.6401    -1.5201
1351 0.6401     1.5201
 433
1352-0.6401    -1.5401
1353-0.6401     1.5401
1354 0.6401    -1.5401
1355 0.6401     1.5401
 434
1356-0.6401     1.6001
1357 0.6401     1.6001
 435
1358-0.6401    -1.6201
1359-0.6401     1.6201
1360 0.6401    -1.6201
1361 0.6401     1.6201
 436
1362-0.6401    -1.6401
1363-0.6401     1.6401
1364 0.6401    -1.6401
1365 0.6401     1.6401
 437
1366-0.6401     1.7001
1367 0.6401     1.7001
 438
1368-0.6401    -1.7201
1369-0.6401     1.7201
1370 0.6401    -1.7201
1371 0.6401     1.7201
 439
1372-0.6401    -1.7401
1373-0.6401     1.7401
1374 0.6401    -1.7401
1375 0.6401     1.7401
 440
1376-0.7202
1377-0.7201     0.7201
1378 0.7202
 441
1379-0.7201    -0.7401
1380-0.7201     0.7401
1381 0.7201    -0.7401
1382 0.7201     0.7401
 442
1383-0.7201     0.8001
1384 0.7201     0.8001
 443
1385-0.7201    -0.8201
1386-0.7201     0.8201
1387 0.7201    -0.8201
1388 0.7201     0.8201
 444
1389-0.7201    -0.8401
1390-0.7201     0.8401
1391 0.7201    -0.8401
1392 0.7201     0.8401
 445
1393-0.7201     0.9001
1394 0.7201     0.9001
 446
1395-0.7201    -0.9201
1396-0.7201     0.9201
1397 0.7201    -0.9201
1398 0.7201     0.9201
 447
1399-0.7201    -0.9401
1400-0.7201     0.9401
1401 0.7201    -0.9401
1402 0.7201     0.9401
 448
1403-0.7201     1.0001
1404 0.7201     1.0001
 449
1405-0.7201    -1.0201
1406-0.7201     1.0201
1407 0.7201    -1.0201
1408 0.7201     1.0201
 450
1409-0.7201    -1.0401
1410-0.7201     1.0401
1411 0.7201    -1.0401
1412 0.7201     1.0401
 451
1413-0.7201     1.1001
1414 0.7201     1.1001
 452
1415-0.7201    -1.1201
1416-0.7201     1.1201
1417 0.7201    -1.1201
1418 0.7201     1.1201
 453
1419-0.7201    -1.1401
1420-0.7201     1.1401
1421 0.7201    -1.1401
1422 0.7201     1.1401
 454
1423-0.7201     1.2001
1424 0.7201     1.2001
 455
1425-0.7201    -1.2201
1426-0.7201     1.2201
1427 0.7201    -1.2201
1428 0.7201     1.2201
 456
1429-0.7201    -1.2401
1430-0.7201     1.2401
1431 0.7201    -1.2401
1432 0.7201     1.2401
 457
1433-0.7201     1.3001
1434 0.7201     1.3001
 458
1435-0.7201    -1.3201
1436-0.7201     1.3201
1437 0.7201    -1.3201
1438 0.7201     1.3201
 459
1439-0.7201    -1.3401
1440-0.7201     1.3401
1441 0.7201    -1.3401
1442 0.7201     1.3401
 460
1443-0.7201     1.4001
1444 0.7201     1.4001
 461
1445-0.7201    -1.4201
1446-0.7201     1.4201
1447 0.7201    -1.4201
1448 0.7201     1.4201
 462
1449-0.7201    -1.4401
1450-0.7201     1.4401
1451 0.7201    -1.4401
1452 0.7201     1.4401
 463
1453-0.7201     1.5001
1454 0.7201     1.5001
 464
1455-0.7201    -1.5201
1456-0.7201     1.5201
1457 0.7201    -1.5201
1458 0.7201     1.5201
 465
1459-0.7201    -1.5401
1460-0.7201     1.5401
1461 0.7201    -1.5401
1462 0.7201     1.5401
 466
1463-0.7201     1.6001
1464 0.7201     1.6001
 467
1465-0.7201    -1.6201
1466-0.7201     1.6201
1467 0.7201    -1.6201
1468 0.7201     1.6201
 468
1469-0.7201    -1.6401
1470-0.7201     1.6401
1471 0.7201    -1.6401
1472 0.7201     1.6401
 469
1473-0.7201     1.7001
1474 0.7201     1.7001
 470
1475-0.7201    -1.7201
1476-0.7201     1.7201
1477 0.7201    -1.7201
1478 0.7201     1.7201
 471
1479-0.7201    -1.7401
1480-0.7201     1.7401
1481 0.7201    -1.7401
1482 0.7201     1.7401
 472
1483-0.7302
1484-0.7301     0.7301
1485 0.7302
 473
1486-0.7301    -0.8101
1487-0.7301     0.8101
1488 0.7301    -0.8101
1489 0.7301     0.8101
 474
1490-0.7301    -0.8301
1491-0.7301     0.8301
1492 0.7301    -0.8301
1493 0.7301     0.8301
 475
1494-0.7301    -0.9101
1495-0.7301     0.9101
1496 0.7301    -0.9101
1497 0.7301     0.9101
 476
1498-0.7301    -0.9301
1499-0.7301     0.9301
1500 0.7301    -0.9301
1501 0.7301     0.9301
 477
1502-0.7301    -1.0101
1503-0.7301     1.0101
1504 0.7301    -1.0101
1505 0.7301     1.0101
 478
1506-0.7301    -1.0301
1507-0.7301     1.0301
1508 0.7301    -1.0301
1509 0.7301     1.0301
 479
1510-0.7301    -1.1101
1511-0.7301     1.1101
1512 0.7301    -1.1101
1513 0.7301     1.1101
 480
1514-0.7301    -1.1301
1515-0.7301     1.1301
1516 0.7301    -1.1301
1517 0.7301     1.1301
 481
1518-0.7301    -1.2101
1519-0.7301     1.2101
1520 0.7301    -1.2101
1521 0.7301     1.2101
 482
1522-0.7301    -1.2301
1523-0.7301     1.2301
1524 0.7301    -1.2301
1525 0.7301     1.2301
 483
1526-0.7301    -1.3101
1527-0.7301     1.3101
1528 0.7301    -1.3101
1529 0.7301     1.3101
 484
1530-0.7301    -1.3301
1531-0.7301     1.3301
1532 0.7301    -1.3301
1533 0.7301     1.3301
 485
1534-0.7301    -1.4101
1535-0.7301     1.4101
1536 0.7301    -1.4101
1537 0.7301     1.4101
 486
1538-0.7301    -1.4301
1539-0.7301     1.4301
1540 0.7301    -1.4301
1541 0.7301     1.4301
 487
1542-0.7301    -1.5101
1543-0.7301     1.5101
1544 0.7301    -1.5101
1545 0.7301     1.5101
 488
1546-0.7301    -1.5301
1547-0.7301     1.5301
1548 0.7301    -1.5301
1549 0.7301     1.5301
 489
1550-0.7301    -1.6101
1551-0.7301     1.6101
1552 0.7301    -1.6101
1553 0.7301     1.6101
 490
1554-0.7301    -1.6301
1555-0.7301     1.6301
1556 0.7301    -1.6301
1557 0.7301     1.6301
 491
1558-0.7301    -1.7101
1559-0.7301     1.7101
1560 0.7301    -1.7101
1561 0.7301     1.7101
 492
1562-0.7301    -1.7301
1563-0.7301     1.7301
1564 0.7301    -1.7301
1565 0.7301     1.7301
 493
1566-0.7402
1567-0.7401     0.7401
1568 0.7402
 494
1569-0.7401     0.8001
1570 0.7401     0.8001
 495
1571-0.7401    -0.8201
1572-0.7401     0.8201
1573 0.7401    -0.8201
1574 0.7401     0.8201
 496
1575-0.7401    -0.8401
1576-0.7401     0.8401
1577 0.7401    -0.8401
1578 0.7401     0.8401
 497
1579-0.7401     0.9001
1580 0.7401     0.9001
 498
1581-0.7401    -0.9201
1582-0.7401     0.9201
1583 0.7401    -0.9201
1584 0.7401     0.9201
 499
1585-0.7401    -0.9401
1586-0.7401     0.9401
1587 0.7401    -0.9401
1588 0.7401     0.9401
 500
1589-0.7401     1.0001
1590 0.7401     1.0001
 501
1591-0.7401    -1.0201
1592-0.7401     1.0201
1593 0.7401    -1.0201
1594 0.7401     1.0201
 502
1595-0.7401    -1.0401
1596-0.7401     1.0401
1597 0.7401    -1.0401
1598 0.7401     1.0401
 503
1599-0.7401     1.1001
1600 0.7401     1.1001
 504
1601-0.7401    -1.1201
1602-0.7401     1.1201
1603 0.7401    -1.1201
1604 0.7401     1.1201
 505
1605-0.7401    -1.1401
1606-0.7401     1.1401
1607 0.7401    -1.1401
1608 0.7401     1.1401
 506
1609-0.7401     1.2001
1610 0.7401     1.2001
 507
1611-0.7401    -1.2201
1612-0.7401     1.2201
1613 0.7401    -1.2201
1614 0.7401     1.2201
 508
1615-0.7401    -1.2401
1616-0.7401     1.2401
1617 0.7401    -1.2401
1618 0.7401     1.2401
 509
1619-0.7401     1.3001
1620 0.7401     1.3001
 510
1621-0.7401    -1.3201
1622-0.7401     1.3201
1623 0.7401    -1.3201
1624 0.7401     1.3201
 511
1625-0.7401    -1.3401
1626-0.7401     1.3401
1627 0.7401    -1.3401
1628 0.7401     1.3401
 512
1629-0.7401     1.4001
1630 0.7401     1.4001
 513
1631-0.7401    -1.4201
1632-0.7401     1.4201
1633 0.7401    -1.4201
1634 0.7401     1.4201
 514
1635-0.7401    -1.4401
1636-0.7401     1.4401
1637 0.7401    -1.4401
1638 0.7401     1.4401
 515
1639-0.7401     1.5001
1640 0.7401     1.5001
 516
1641-0.7401    -1.5201
1642-0.7401     1.5201
1643 0.7401    -1.5201
1644 0.7401     1.5201
 517
1645-0.7401    -1.5401
1646-0.7401     1.5401
1647 0.7401    -1.5401
1648 0.7401     1.5401
 518
1649-0.7401     1.6001
1650 0.7401     1.6001
 519
1651-0.7401    -1.6201
1652-0.7401     1.6201
1653 0.7401    -1.6201
1654 0.7401     1.6201
 520
1655-0.7401    -1.6401
1656-0.7401     1.6401
1657 0.7401    -1.6401
1658 0.7401     1.6401
 521
1659-0.7401     1.7001
1660 0.7401     1.7001
 522
1661-0.7401    -1.7201
1662-0.7401     1.7201
1663 0.7401    -1.7201
1664 0.7401     1.7201
 523
1665-0.7401    -1.7401
1666-0.7401     1.7401
1667 0.7401    -1.7401
1668 0.7401     1.7401
 524
1669 0.8002
 525
1670 0.8001    -0.8201
1671 0.8001     0.8201
 526
1672 0.8001    -0.8401
1673 0.8001     0.8401
 527
1674 0.8001     0.9001
 528
1675 0.8001    -0.9201
1676 0.8001     0.9201
 529
1677 0.8001    -0.9401
1678 0.8001     0.9401
 530
1679 0.8001     1.0001
 531
1680 0.8001    -1.0201
1681 0.8001     1.0201
 532
1682 0.8001    -1.0401
1683 0.8001     1.0401
 533
1684 0.8001     1.1001
 534
1685 0.8001    -1.1201
1686 0.8001     1.1201
 535
1687 0.8001    -1.1401
1688 0.8001     1.1401
 536
1689 0.8001     1.2001
 537
1690 0.8001    -1.2201
1691 0.8001     1.2201
 538
1692 0.8001    -1.2401
1693 0.8001     1.2401
 539
1694 0.8001     1.3001
 540
1695 0.8001    -1.3201
1696 0.8001     1.3201
 541
1697 0.8001    -1.3401
1698 0.8001     1.3401
 542
1699 0.8001     1.4001
 543
1700 0.8001    -1.4201
1701 0.8001     1.4201
 544
1702 0.8001    -1.4401
1703 0.8001     1.4401
 545
1704 0.8001     1.5001
 546
1705 0.8001    -1.5201
1706 0.8001     1.5201
 547
1707 0.8001    -1.5401
1708 0.8001     1.5401
 548
1709 0.8001     1.6001
 549
1710 0.8001    -1.6201
1711 0.8001     1.6201
 550
1712 0.8001    -1.6401
1713 0.8001     1.6401
 551
1714 0.8001     1.7001
 552
1715 0.8001    -1.7201
1716 0.8001     1.7201
 553
1717 0.8001    -1.7401
1718 0.8001     1.7401
 554
1719-0.8102
1720-0.8101     0.8101
1721 0.8102
 555
1722-0.8101    -0.8301
1723-0.8101     0.8301
1724 0.8101    -0.8301
1725 0.8101     0.8301
 556
1726-0.8101    -0.9101
1727-0.8101     0.9101
1728 0.8101    -0.9101
1729 0.8101     0.9101
 557
1730-0.8101    -0.9301
1731-0.8101     0.9301
1732 0.8101    -0.9301
1733 0.8101     0.9301
 558
1734-0.8101    -1.0101
1735-0.8101     1.0101
1736 0.8101    -1.0101
1737 0.8101     1.0101
 559
1738-0.8101    -1.0301
1739-0.8101     1.0301
1740 0.8101    -1.0301
1741 0.8101     1.0301
 560
1742-0.8101    -1.1101
1743-0.8101     1.1101
1744 0.8101    -1.1101
1745 0.8101     1.1101
 561
1746-0.8101    -1.1301
1747-0.8101     1.1301
1748 0.8101    -1.1301
1749 0.8101     1.1301
 562
1750-0.8101    -1.2101
1751-0.8101     1.2101
1752 0.8101    -1.2101
1753 0.8101     1.2101
 563
1754-0.8101    -1.2301
1755-0.8101     1.2301
1756 0.8101    -1.2301
1757 0.8101     1.2301
 564
1758-0.8101    -1.3101
1759-0.8101     1.3101
1760 0.8101    -1.3101
1761 0.8101     1.3101
 565
1762-0.8101    -1.3301
1763-0.8101     1.3301
1764 0.8101    -1.3301
1765 0.8101     1.3301
 566
1766-0.8101    -1.4101
1767-0.8101     1.4101
1768 0.8101    -1.4101
1769 0.8101     1.4101
 567
1770-0.8101    -1.4301
1771-0.8101     1.4301
1772 0.8101    -1.4301
1773 0.8101     1.4301
 568
1774-0.8101    -1.5101
1775-0.8101     1.5101
1776 0.8101    -1.5101
1777 0.8101     1.5101
 569
1778-0.8101    -1.5301
1779-0.8101     1.5301
1780 0.8101    -1.5301
1781 0.8101     1.5301
 570
1782-0.8101    -1.6101
1783-0.8101     1.6101
1784 0.8101    -1.6101
1785 0.8101     1.6101
 571
1786-0.8101    -1.6301
1787-0.8101     1.6301
1788 0.8101    -1.6301
1789 0.8101     1.6301
 572
1790-0.8101    -1.7101
1791-0.8101     1.7101
1792 0.8101    -1.7101
1793 0.8101     1.7101
 573
1794-0.8101    -1.7301
1795-0.8101     1.7301
1796 0.8101    -1.7301
1797 0.8101     1.7301
 574
1798-0.8202
1799-0.8201     0.8201
1800 0.8202
 575
1801-0.8201    -0.8401
1802-0.8201     0.8401
1803 0.8201    -0.8401
1804 0.8201     0.8401
 576
1805-0.8201     0.9001
1806 0.8201     0.9001
 577
1807-0.8201    -0.9201
1808-0.8201     0.9201
1809 0.8201    -0.9201
1810 0.8201     0.9201
 578
1811-0.8201    -0.9401
1812-0.8201     0.9401
1813 0.8201    -0.9401
1814 0.8201     0.9401
 579
1815-0.8201     1.0001
1816 0.8201     1.0001
 580
1817-0.8201    -1.0201
1818-0.8201     1.0201
1819 0.8201    -1.0201
1820 0.8201     1.0201
 581
1821-0.8201    -1.0401
1822-0.8201     1.0401
1823 0.8201    -1.0401
1824 0.8201     1.0401
 582
1825-0.8201     1.1001
1826 0.8201     1.1001
 583
1827-0.8201    -1.1201
1828-0.8201     1.1201
1829 0.8201    -1.1201
1830 0.8201     1.1201
 584
1831-0.8201    -1.1401
1832-0.8201     1.1401
1833 0.8201    -1.1401
1834 0.8201     1.1401
 585
1835-0.8201     1.2001
1836 0.8201     1.2001
 586
1837-0.8201    -1.2201
1838-0.8201     1.2201
1839 0.8201    -1.2201
1840 0.8201     1.2201
 587
1841-0.8201    -1.2401
1842-0.8201     1.2401
1843 0.8201    -1.2401
1844 0.8201     1.2401
 588
1845-0.8201     1.3001
1846 0.8201     1.3001
 589
1847-0.8201    -1.3201
1848-0.8201     1.3201
1849 0.8201    -1.3201
1850 0.8201     1.3201
 590
1851-0.8201    -1.3401
1852-0.8201     1.3401
1853 0.8201    -1.3401
1854 0.8201     1.3401
 591
1855-0.8201     1.4001
1856 0.8201     1.4001
 592
1857-0.8201    -1.4201
1858-0.8201     1.4201
1859 0.8201    -1.4201
1860 0.8201     1.4201
 593
1861-0.8201    -1.4401
1862-0.8201     1.4401
1863 0.8201    -1.4401
1864 0.8201     1.4401
 594
1865-0.8201     1.5001
1866 0.8201     1.5001
 595
1867-0.8201    -1.5201
1868-0.8201     1.5201
1869 0.8201    -1.5201
1870 0.8201     1.5201
 596
1871-0.8201    -1.5401
1872-0.8201     1.5401
1873 0.8201    -1.5401
1874 0.8201     1.5401
 597
1875-0.8201     1.6001
1876 0.8201     1.6001
 598
1877-0.8201    -1.6201
1878-0.8201     1.6201
1879 0.8201    -1.6201
1880 0.8201     1.6201
 599
1881-0.8201    -1.6401
1882-0.8201     1.6401
1883 0.8201    -1.6401
1884 0.8201     1.6401
 600
1885-0.8201     1.7001
1886 0.8201     1.7001
 601
1887-0.8201    -1.7201
1888-0.8201     1.7201
1889 0.8201    -1.7201
1890 0.8201     1.7201
 602
1891-0.8201    -1.7401
1892-0.8201     1.7401
1893 0.8201    -1.7401
1894 0.8201     1.7401
 603
1895-0.8302
1896-0.8301     0.8301
1897 0.8302
 604
1898-0.8301    -0.9101
1899-0.8301     0.9101
1900 0.8301    -0.9101
1901 0.8301     0.9101
 605
1902-0.8301    -0.9301
1903-0.8301     0.9301
1904 0.8301    -0.9301
1905 0.8301     0.9301
 606
1906-0.8301    -1.0101
1907-0.8301     1.0101
1908 0.8301    -1.0101
1909 0.8301     1.0101
 607
1910-0.8301    -1.0301
1911-0.8301     1.0301
1912 0.8301    -1.0301
1913 0.8301     1.0301
 608
1914-0.8301    -1.1101
1915-0.8301     1.1101
1916 0.8301    -1.1101
1917 0.8301     1.1101
 609
1918-0.8301    -1.1301
1919-0.8301     1.1301
1920 0.8301    -1.1301
1921 0.8301     1.1301
 610
1922-0.8301    -1.2101
1923-0.8301     1.2101
1924 0.8301    -1.2101
1925 0.8301     1.2101
 611
1926-0.8301    -1.2301
1927-0.8301     1.2301
1928 0.8301    -1.2301
1929 0.8301     1.2301
 612
1930-0.8301    -1.3101
1931-0.8301     1.3101
1932 0.8301    -1.3101
1933 0.8301     1.3101
 613
1934-0.8301    -1.3301
1935-0.8301     1.3301
1936 0.8301    -1.3301
1937 0.8301     1.3301
 614
1938-0.8301    -1.4101
1939-0.8301     1.4101
1940 0.8301    -1.4101
1941 0.8301     1.4101
 615
1942-0.8301    -1.4301
1943-0.8301     1.4301
1944 0.8301    -1.4301
1945 0.8301     1.4301
 616
1946-0.8301    -1.5101
1947-0.8301     1.5101
1948 0.8301    -1.5101
1949 0.8301     1.5101
 617
1950-0.8301    -1.5301
1951-0.8301     1.5301
1952 0.8301    -1.5301
1953 0.8301     1.5301
 618
1954-0.8301    -1.6101
1955-0.8301     1.6101
1956 0.8301    -1.6101
1957 0.8301     1.6101
 619
1958-0.8301    -1.6301
1959-0.8301     1.6301
1960 0.8301    -1.6301
1961 0.8301     1.6301
 620
1962-0.8301    -1.7101
1963-0.8301     1.7101
1964 0.8301    -1.7101
1965 0.8301     1.7101
 621
1966-0.8301    -1.7301
1967-0.8301     1.7301
1968 0.8301    -1.7301
1969 0.8301     1.7301
 622
1970-0.8402
1971-0.8401     0.8401
1972 0.8402
 623
1973-0.8401     0.9001
1974 0.8401     0.9001
 624
1975-0.8401    -0.9201
1976-0.8401     0.9201
1977 0.8401    -0.9201
1978 0.8401     0.9201
 625
1979-0.8401    -0.9401
1980-0.8401     0.9401
1981 0.8401    -0.9401
1982 0.8401     0.9401
 626
1983-0.8401     1.0001
1984 0.8401     1.0001
 627
1985-0.8401    -1.0201
1986-0.8401     1.0201
1987 0.8401    -1.0201
1988 0.8401     1.0201
 628
1989-0.8401    -1.0401
1990-0.8401     1.0401
1991 0.8401    -1.0401
1992 0.8401     1.0401
 629
1993-0.8401     1.1001
1994 0.8401     1.1001
 630
1995-0.8401    -1.1201
1996-0.8401     1.1201
1997 0.8401    -1.1201
1998 0.8401     1.1201
 631
1999-0.8401    -1.1401
2000-0.8401     1.1401
2001 0.8401    -1.1401
2002 0.8401     1.1401
 632
2003-0.8401     1.2001
2004 0.8401     1.2001
 633
2005-0.8401    -1.2201
2006-0.8401     1.2201
2007 0.8401    -1.2201
2008 0.8401     1.2201
 634
2009-0.8401    -1.2401
2010-0.8401     1.2401
2011 0.8401    -1.2401
2012 0.8401     1.2401
 635
2013-0.8401     1.3001
2014 0.8401     1.3001
 636
2015-0.8401    -1.3201
2016-0.8401     1.3201
2017 0.8401    -1.3201
2018 0.8401     1.3201
 637
2019-0.8401    -1.3401
2020-0.8401     1.3401
2021 0.8401    -1.3401
2022 0.8401     1.3401
 638
2023-0.8401     1.4001
2024 0.8401     1.4001
 639
2025-0.8401    -1.4201
2026-0.8401     1.4201
2027 0.8401    -1.4201
2028 0.8401     1.4201
 640
2029-0.8401    -1.4401
2030-0.8401     1.4401
2031 0.8401    -1.4401
2032 0.8401     1.4401
 641
2033-0.8401     1.5001
2034 0.8401     1.5001
 642
2035-0.8401    -1.5201
2036-0.8401     1.5201
2037 0.8401    -1.5201
2038 0.8401     1.5201
 643
2039-0.8401    -1.5401
2040-0.8401     1.5401
2041 0.8401    -1.5401
2042 0.8401     1.5401
 644
2043-0.8401     1.6001
2044 0.8401     1.6001
 645
2045-0.8401    -1.6201
2046-0.8401     1.6201
2047 0.8401    -1.6201
2048 0.8401     1.6201
 646
2049-0.8401    -1.6401
2050-0.8401     1.6401
2051 0.8401    -1.6401
2052 0.8401     1.6401
 647
2053-0.8401     1.7001
2054 0.8401     1.7001
 648
2055-0.8401    -1.7201
2056-0.8401     1.7201
2057 0.8401    -1.7201
2058 0.8401     1.7201
 649
2059-0.8401    -1.7401
2060-0.8401     1.7401
2061 0.8401    -1.7401
2062 0.8401     1.7401
 650
2063 0.9002
 651
2064 0.9001    -0.9201
2065 0.9001     0.9201
 652
2066 0.9001    -0.9401
2067 0.9001     0.9401
 653
2068 0.9001     1.0001
 654
2069 0.9001    -1.0201
2070 0.9001     1.0201
 655
2071 0.9001    -1.0401
2072 0.9001     1.0401
 656
2073 0.9001     1.1001
 657
2074 0.9001    -1.1201
2075 0.9001     1.1201
 658
2076 0.9001    -1.1401
2077 0.9001     1.1401
 659
2078 0.9001     1.2001
 660
2079 0.9001    -1.2201
2080 0.9001     1.2201
 661
2081 0.9001    -1.2401
2082 0.9001     1.2401
 662
2083 0.9001     1.3001
 663
2084 0.9001    -1.3201
2085 0.9001     1.3201
 664
2086 0.9001    -1.3401
2087 0.9001     1.3401
 665
2088 0.9001     1.4001
 666
2089 0.9001    -1.4201
2090 0.9001     1.4201
 667
2091 0.9001    -1.4401
2092 0.9001     1.4401
 668
2093 0.9001     1.5001
 669
2094 0.9001    -1.5201
2095 0.9001     1.5201
 670
2096 0.9001    -1.5401
2097 0.9001     1.5401
 671
2098 0.9001     1.6001
 672
2099 0.9001    -1.6201
2100 0.9001     1.6201
 673
2101 0.9001    -1.6401
2102 0.9001     1.6401
 674
2103 0.9001     1.7001
 675
2104 0.9001    -1.7201
2105 0.9001     1.7201
 676
2106 0.9001    -1.7401
2107 0.9001     1.7401
 677
2108-0.9102
2109-0.9101     0.9101
2110 0.9102
 678
2111-0.9101    -0.9301
2112-0.9101     0.9301
2113 0.9101    -0.9301
2114 0.9101     0.9301
 679
2115-0.9101    -1.0101
2116-0.9101     1.0101
2117 0.9101    -1.0101
2118 0.9101     1.0101
 680
2119-0.9101    -1.0301
2120-0.9101     1.0301
2121 0.9101    -1.0301
2122 0.9101     1.0301
 681
2123-0.9101    -1.1101
2124-0.9101     1.1101
2125 0.9101    -1.1101
2126 0.9101     1.1101
 682
2127-0.9101    -1.1301
2128-0.9101     1.1301
2129 0.9101    -1.1301
2130 0.9101     1.1301
 683
2131-0.9101    -1.2101
2132-0.9101     1.2101
2133 0.9101    -1.2101
2134 0.9101     1.2101
 684
2135-0.9101    -1.2301
2136-0.9101     1.2301
2137 0.9101    -1.2301
2138 0.9101     1.2301
 685
2139-0.9101    -1.3101
2140-0.9101     1.3101
2141 0.9101    -1.3101
2142 0.9101     1.3101
 686
2143-0.9101    -1.3301
2144-0.9101     1.3301
2145 0.9101    -1.3301
2146 0.9101     1.3301
 687
2147-0.9101    -1.4101
2148-0.9101     1.4101
2149 0.9101    -1.4101
2150 0.9101     1.4101
 688
2151-0.9101    -1.4301
2152-0.9101     1.4301
2153 0.9101    -1.4301
2154 0.9101     1.4301
 689
2155-0.9101    -1.5101
2156-0.9101     1.5101
2157 0.9101    -1.5101
2158 0.9101     1.5101
 690
2159-0.9101    -1.5301
2160-0.9101     1.5301
2161 0.9101    -1.5301
2162 0.9101     1.5301
 691
2163-0.9101    -1.6101
2164-0.9101     1.6101
2165 0.9101    -1.6101
2166 0.9101     1.6101
 692
2167-0.9101    -1.6301
2168-0.9101     1.6301
2169 0.9101    -1.6301
2170 0.9101     1.6301
 693
2171-0.9101    -1.7101
2172-0.9101     1.7101
2173 0.9101    -1.7101
2174 0.9101     1.7101
 694
2175-0.9101    -1.7301
2176-0.9101     1.7301
2177 0.9101    -1.7301
2178 0.9101     1.7301
 695
2179-0.9202
2180-0.9201     0.9201
2181 0.9202
 696
2182-0.9201    -0.9401
2183-0.9201     0.9401
2184 0.9201    -0.9401
2185 0.9201     0.9401
 697
2186-0.9201     1.0001
2187 0.9201     1.0001
 698
2188-0.9201    -1.0201
2189-0.9201     1.0201
2190 0.9201    -1.0201
2191 0.9201     1.0201
 699
2192-0.9201    -1.0401
2193-0.9201     1.0401
2194 0.9201    -1.0401
2195 0.9201     1.0401
 700
2196-0.9201     1.1001
2197 0.9201     1.1001
 701
2198-0.9201    -1.1201
2199-0.9201     1.1201
2200 0.9201    -1.1201
2201 0.9201     1.1201
 702
2202-0.9201    -1.1401
2203-0.9201     1.1401
2204 0.9201    -1.1401
2205 0.9201     1.1401
 703
2206-0.9201     1.2001
2207 0.9201     1.2001
 704
2208-0.9201    -1.2201
2209-0.9201     1.2201
2210 0.9201    -1.2201
2211 0.9201     1.2201
 705
2212-0.9201    -1.2401
2213-0.9201     1.2401
2214 0.9201    -1.2401
2215 0.9201     1.2401
 706
2216-0.9201     1.3001
2217 0.9201     1.3001
 707
2218-0.9201    -1.3201
2219-0.9201     1.3201
2220 0.9201    -1.3201
2221 0.9201     1.3201
 708
2222-0.9201    -1.3401
2223-0.9201     1.3401
2224 0.9201    -1.3401
2225 0.9201     1.3401
 709
2226-0.9201     1.4001
2227 0.9201     1.4001
 710
2228-0.9201    -1.4201
2229-0.9201     1.4201
2230 0.9201    -1.4201
2231 0.9201     1.4201
 711
2232-0.9201    -1.4401
2233-0.9201     1.4401
2234 0.9201    -1.4401
2235 0.9201     1.4401
 712
2236-0.9201     1.5001
2237 0.9201     1.5001
 713
2238-0.9201    -1.5201
2239-0.9201     1.5201
2240 0.9201    -1.5201
2241 0.9201     1.5201
 714
2242-0.9201    -1.5401
2243-0.9201     1.5401
2244 0.9201    -1.5401
2245 0.9201     1.5401
 715
2246-0.9201     1.6001
2247 0.9201     1.6001
 716
2248-0.9201    -1.6201
2249-0.9201     1.6201
2250 0.9201    -1.6201
2251 0.9201     1.6201
 717
2252-0.9201    -1.6401
2253-0.9201     1.6401
2254 0.9201    -1.6401
2255 0.9201     1.6401
 718
2256-0.9201     1.7001
2257 0.9201     1.7001
 719
2258-0.9201    -1.7201
2259-0.9201     1.7201
2260 0.9201    -1.7201
2261 0.9201     1.7201
 720
2262-0.9201    -1.7401
2263-0.9201     1.7401
2264 0.9201    -1.7401
2265 0.9201     1.7401
 721
2266-0.9302
2267-0.9301     0.9301
2268 0.9302
 722
2269-0.9301    -1.0101
2270-0.9301     1.0101
2271 0.9301    -1.0101
2272 0.9301     1.0101
 723
2273-0.9301    -1.0301
2274-0.9301     1.0301
2275 0.9301    -1.0301
2276 0.9301     1.0301
 724
2277-0.9301    -1.1101
2278-0.9301     1.1101
2279 0.9301    -1.1101
2280 0.9301     1.1101
 725
2281-0.9301    -1.1301
2282-0.9301     1.1301
2283 0.9301    -1.1301
2284 0.9301     1.1301
 726
2285-0.9301    -1.2101
2286-0.9301     1.2101
2287 0.9301    -1.2101
2288 0.9301     1.2101
 727
2289-0.9301    -1.2301
2290-0.9301     1.2301
2291 0.9301    -1.2301
2292 0.9301     1.2301
 728
2293-0.9301    -1.3101
2294-0.9301     1.3101
2295 0.9301    -1.3101
2296 0.9301     1.3101
 729
2297-0.9301    -1.3301
2298-0.9301     1.3301
2299 0.9301    -1.3301
2300 0.9301     1.3301
 730
2301-0.9301    -1.4101
2302-0.9301     1.4101
2303 0.9301    -1.4101
2304 0.9301     1.4101
 731
2305-0.9301    -1.4301
2306-0.9301     1.4301
2307 0.9301    -1.4301
2308 0.9301     1.4301
 732
2309-0.9301    -1.5101
2310-0.9301     1.5101
2311 0.9301    -1.5101
2312 0.9301     1.5101
 733
2313-0.9301    -1.5301
2314-0.9301     1.5301
2315 0.9301    -1.5301
2316 0.9301     1.5301
 734
2317-0.9301    -1.6101
2318-0.9301     1.6101
2319 0.9301    -1.6101
2320 0.9301     1.6101
 735
2321-0.9301    -1.6301
2322-0.9301     1.6301
2323 0.9301    -1.6301
2324 0.9301     1.6301
 736
2325-0.9301    -1.7101
2326-0.9301     1.7101
2327 0.9301    -1.7101
2328 0.9301     1.7101
 737
2329-0.9301    -1.7301
2330-0.9301     1.7301
2331 0.9301    -1.7301
2332 0.9301     1.7301
 738
2333-0.9402
2334-0.9401     0.9401
2335 0.9402
 739
2336-0.9401     1.0001
2337 0.9401     1.0001
 740
2338-0.9401    -1.0201
2339-0.9401     1.0201
2340 0.9401    -1.0201
2341 0.9401     1.0201
 741
2342-0.9401    -1.0401
2343-0.9401     1.0401
2344 0.9401    -1.0401
2345 0.9401     1.0401
 742
2346-0.9401     1.1001
2347 0.9401     1.1001
 743
2348-0.9401    -1.1201
2349-0.9401     1.1201
2350 0.9401    -1.1201
2351 0.9401     1.1201
 744
2352-0.9401    -1.1401
2353-0.9401     1.1401
2354 0.9401    -1.1401
2355 0.9401     1.1401
 745
2356-0.9401     1.2001
2357 0.9401     1.2001
 746
2358-0.9401    -1.2201
2359-0.9401     1.2201
2360 0.9401    -1.2201
2361 0.9401     1.2201
 747
2362-0.9401    -1.2401
2363-0.9401     1.2401
2364 0.9401    -1.2401
2365 0.9401     1.2401
 748
2366-0.9401     1.3001
2367 0.9401     1.3001
 749
2368-0.9401    -1.3201
2369-0.9401     1.3201
2370 0.9401    -1.3201
2371 0.9401     1.3201
 750
2372-0.9401    -1.3401
2373-0.9401     1.3401
2374 0.9401    -1.3401
2375 0.9401     1.3401
 751
2376-0.9401     1.4001
2377 0.9401     1.4001
 752
2378-0.9401    -1.4201
2379-0.9401     1.4201
2380 0.9401    -1.4201
2381 0.9401     1.4201
 753
2382-0.9401    -1.4401
2383-0.9401     1.4401
2384 0.9401    -1.4401
2385 0.9401     1.4401
 754
2386-0.9401     1.5001
2387 0.9401     1.5001
 755
2388-0.9401    -1.5201
2389-0.9401     1.5201
2390 0.9401    -1.5201
2391 0.9401     1.5201
 756
2392-0.9401    -1.5401
2393-0.9401     1.5401
2394 0.9401    -1.5401
2395 0.9401     1.5401
 757
2396-0.9401     1.6001
2397 0.9401     1.6001
 758
2398-0.9401    -1.6201
2399-0.9401     1.6201
2400 0.9401    -1.6201
2401 0.9401     1.6201
 759
2402-0.9401    -1.6401
2403-0.9401     1.6401
2404 0.9401    -1.6401
2405 0.9401     1.6401
 760
2406-0.9401     1.7001
2407 0.9401     1.7001
 761
2408-0.9401    -1.7201
2409-0.9401     1.7201
2410 0.9401    -1.7201
2411 0.9401     1.7201
 762
2412-0.9401    -1.7401
2413-0.9401     1.7401
2414 0.9401    -1.7401
2415 0.9401     1.7401
 763
2416 1.0002
 764
2417 1.0001    -1.0201
2418 1.0001     1.0201
 765
2419 1.0001    -1.0401
2420 1.0001     1.0401
 766
2421 1.0001     1.1001
 767
2422 1.0001    -1.1201
2423 1.0001     1.1201
 768
2424 1.0001    -1.1401
2425 1.0001     1.1401
 769
2426 1.0001     1.2001
 770
2427 1.0001    -1.2201
2428 1.0001     1.2201
 771
2429 1.0001    -1.2401
2430 1.0001     1.2401
 772
2431 1.0001     1.3001
 773
2432 1.0001    -1.3201
2433 1.0001     1.3201
 774
2434 1.0001    -1.3401
2435 1.0001     1.3401
 775
2436 1.0001     1.4001
 776
2437 1.0001    -1.4201
2438 1.0001     1.4201
 777
2439 1.0001    -1.4401
2440 1.0001     1.4401
 778
2441 1.0001     1.5001
 779
2442 1.0001    -1.5201
2443 1.0001     1.5201
 780
2444 1.0001    -1.5401
2445 1.0001     1.5401
 781
2446 1.0001     1.6001
 782
2447 1.0001    -1.6201
2448 1.0001     1.6201
 783
2449 1.0001    -1.6401
2450 1.0001     1.6401
 784
2451 1.0001     1.7001
 785
2452 1.0001    -1.7201
2453 1.0001     1.7201
 786
2454 1.0001    -1.7401
2455 1.0001     1.7401
 787
2456-1.0102
2457-1.0101     1.0101
2458 1.0102
 788
2459-1.0101    -1.0301
2460-1.0101     1.0301
2461 1.0101    -1.0301
2462 1.0101     1.0301
 789
2463-1.0101    -1.1101
2464-1.0101     1.1101
2465 1.0101    -1.1101
2466 1.0101     1.1101
 790
2467-1.0101    -1.1301
2468-1.0101     1.1301
2469 1.0101    -1.1301
2470 1.0101     1.1301
 791
2471-1.0101    -1.2101
2472-1.0101     1.2101
2473 1.0101    -1.2101
2474 1.0101     1.2101
 792
2475-1.0101    -1.2301
2476-1.0101     1.2301
2477 1.0101    -1.2301
2478 1.0101     1.2301
 793
2479-1.0101    -1.3101
2480-1.0101     1.3101
2481 1.0101    -1.3101
2482 1.0101     1.3101
 794
2483-1.0101    -1.3301
2484-1.0101     1.3301
2485 1.0101    -1.3301
2486 1.0101     1.3301
 795
2487-1.0101    -1.4101
2488-1.0101     1.4101
2489 1.0101    -1.4101
2490 1.0101     1.4101
 796
2491-1.0101    -1.4301
2492-1.0101     1.4301
2493 1.0101    -1.4301
2494 1.0101     1.4301
 797
2495-1.0101    -1.5101
2496-1.0101     1.5101
2497 1.0101    -1.5101
2498 1.0101     1.5101
 798
2499-1.0101    -1.5301
2500-1.0101     1.5301
2501 1.0101    -1.5301
2502 1.0101     1.5301
 799
2503-1.0101    -1.6101
2504-1.0101     1.6101
2505 1.0101    -1.6101
2506 1.0101     1.6101
 800
2507-1.0101    -1.6301
2508-1.0101     1.6301
2509 1.0101    -1.6301
2510 1.0101     1.6301
 801
2511-1.0101    -1.7101
2512-1.0101     1.7101
2513 1.0101    -1.7101
2514 1.0101     1.7101
 802
2515-1.0101    -1.7301
2516-1.0101     1.7301
2517 1.0101    -1.7301
2518 1.0101     1.7301
 803
2519-1.0202
2520-1.0201     1.0201
2521 1.0202
 804
2522-1.0201    -1.0401
2523-1.0201     1.0401
2524 1.0201    -1.0401
2525 1.0201     1.0401
 805
2526-1.0201     1.1001
2527 1.0201     1.1001
 806
2528-1.0201    -1.1201
2529-1.0201     1.1201
2530 1.0201    -1.1201
2531 1.0201     1.1201
 807
2532-1.0201    -1.1401
2533-1.0201     1.1401
2534 1.0201    -1.1401
2535 1.0201     1.1401
 808
2536-1.0201     1.2001
2537 1.0201     1.2001
 809
2538-1.0201    -1.2201
2539-1.0201     1.2201
2540 1.0201    -1.2201
2541 1.0201     1.2201
 810
2542-1.0201    -1.2401
2543-1.0201     1.2401
2544 1.0201    -1.2401
2545 1.0201     1.2401
 811
2546-1.0201     1.3001
2547 1.0201     1.3001
 812
2548-1.0201    -1.3201
2549-1.0201     1.3201
2550 1.0201    -1.3201
2551 1.0201     1.3201
 813
2552-1.0201    -1.3401
2553-1.0201     1.3401
2554 1.0201    -1.3401
2555 1.0201     1.3401
 814
2556-1.0201     1.4001
2557 1.0201     1.4001
 815
2558-1.0201    -1.4201
2559-1.0201     1.4201
2560 1.0201    -1.4201
2561 1.0201     1.4201
 816
2562-1.0201    -1.4401
2563-1.0201     1.4401
2564 1.0201    -1.4401
2565 1.0201     1.4401
 817
2566-1.0201     1.5001
2567 1.0201     1.5001
 818
2568-1.0201    -1.5201
2569-1.0201     1.5201
2570 1.0201    -1.5201
2571 1.0201     1.5201
 819
2572-1.0201    -1.5401
2573-1.0201     1.5401
2574 1.0201    -1.5401
2575 1.0201     1.5401
 820
2576-1.0201     1.6001
2577 1.0201     1.6001
 821
2578-1.0201    -1.6201
2579-1.0201     1.6201
2580 1.0201    -1.6201
2581 1.0201     1.6201
 822
2582-1.0201    -1.6401
2583-1.0201     1.6401
2584 1.0201    -1.6401
2585 1.0201     1.6401
 823
2586-1.0201     1.7001
2587 1.0201     1.7001
 824
2588-1.0201    -1.7201
2589-1.0201     1.7201
2590 1.0201    -1.7201
2591 1.0201     1.7201
 825
2592-1.0201    -1.7401
2593-1.0201     1.7401
2594 1.0201    -1.7401
2595 1.0201     1.7401
 826
2596-1.0302
2597-1.0301     1.0301
2598 1.0302
 827
2599-1.0301    -1.1101
2600-1.0301     1.1101
2601 1.0301    -1.1101
2602 1.0301     1.1101
 828
2603-1.0301    -1.1301
2604-1.0301     1.1301
2605 1.0301    -1.1301
2606 1.0301     1.1301
 829
2607-1.0301    -1.2101
2608-1.0301     1.2101
2609 1.0301    -1.2101
2610 1.0301     1.2101
 830
2611-1.0301    -1.2301
2612-1.0301     1.2301
2613 1.0301    -1.2301
2614 1.0301     1.2301
 831
2615-1.0301    -1.3101
2616-1.0301     1.3101
2617 1.0301    -1.3101
2618 1.0301     1.3101
 832
2619-1.0301    -1.3301
2620-1.0301     1.3301
2621 1.0301    -1.3301
2622 1.0301     1.3301
 833
2623-1.0301    -1.4101
2624-1.0301     1.4101
2625 1.0301    -1.4101
2626 1.0301     1.4101
 834
2627-1.0301    -1.4301
2628-1.0301     1.4301
2629 1.0301    -1.4301
2630 1.0301     1.4301
 835
2631-1.0301    -1.5101
2632-1.0301     1.5101
2633 1.0301    -1.5101
2634 1.0301     1.5101
 836
2635-1.0301    -1.5301
2636-1.0301     1.5301
2637 1.0301    -1.5301
2638 1.0301     1.5301
 837
2639-1.0301    -1.6101
2640-1.0301     1.6101
2641 1.0301    -1.6101
2642 1.0301     1.6101
 838
2643-1.0301    -1.6301
2644-1.0301     1.6301
2645 1.0301    -1.6301
2646 1.0301     1.6301
 839
2647-1.0301    -1.7101
2648-1.0301     1.7101
2649 1.0301    -1.7101
2650 1.0301     1.7101
 840
2651-1.0301    -1.7301
2652-1.0301     1.7301
2653 1.0301    -1.7301
2654 1.0301     1.7301
 841
2655-1.0402
2656-1.0401     1.0401
2657 1.0402
 842
2658-1.0401     1.1001
2659 1.0401     1.1001
 843
2660-1.0401    -1.1201
2661-1.0401     1.1201
2662 1.0401    -1.1201
2663 1.0401     1.1201
 844
2664-1.0401    -1.1401
2665-1.0401     1.1401
2666 1.0401    -1.1401
2667 1.0401     1.1401
 845
2668-1.0401     1.2001
2669 1.0401     1.2001
 846
2670-1.0401    -1.2201
2671-1.0401     1.2201
2672 1.0401    -1.2201
2673 1.0401     1.2201
 847
2674-1.0401    -1.2401
2675-1.0401     1.2401
2676 1.0401    -1.2401
2677 1.0401     1.2401
 848
2678-1.0401     1.3001
2679 1.0401     1.3001
 849
2680-1.0401    -1.3201
2681-1.0401     1.3201
2682 1.0401    -1.3201
2683 1.0401     1.3201
 850
2684-1.0401    -1.3401
2685-1.0401     1.3401
2686 1.0401    -1.3401
2687 1.0401     1.3401
 851
2688-1.0401     1.4001
2689 1.0401     1.4001
 852
2690-1.0401    -1.4201
2691-1.0401     1.4201
2692 1.0401    -1.4201
2693 1.0401     1.4201
 853
2694-1.0401    -1.4401
2695-1.0401     1.4401
2696 1.0401    -1.4401
2697 1.0401     1.4401
 854
2698-1.0401     1.5001
2699 1.0401     1.5001
 855
2700-1.0401    -1.5201
2701-1.0401     1.5201
2702 1.0401    -1.5201
2703 1.0401     1.5201
 856
2704-1.0401    -1.5401
2705-1.0401     1.5401
2706 1.0401    -1.5401
2707 1.0401     1.5401
 857
2708-1.0401     1.6001
2709 1.0401     1.6001
 858
2710-1.0401    -1.6201
2711-1.0401     1.6201
2712 1.0401    -1.6201
2713 1.0401     1.6201
 859
2714-1.0401    -1.6401
2715-1.0401     1.6401
2716 1.0401    -1.6401
2717 1.0401     1.6401
 860
2718-1.0401     1.7001
2719 1.0401     1.7001
 861
2720-1.0401    -1.7201
2721-1.0401     1.7201
2722 1.0401    -1.7201
2723 1.0401     1.7201
 862
2724-1.0401    -1.7401
2725-1.0401     1.7401
2726 1.0401    -1.7401
2727 1.0401     1.7401
 863
2728 1.1002
 864
2729 1.1001    -1.1201
2730 1.1001     1.1201
 865
2731 1.1001    -1.1401
2732 1.1001     1.1401
 866
2733 1.1001     1.2001
 867
2734 1.1001    -1.2201
2735 1.1001     1.2201
 868
2736 1.1001    -1.2401
2737 1.1001     1.2401
 869
2738 1.1001     1.3001
 870
2739 1.1001    -1.3201
2740 1.1001     1.3201
 871
2741 1.1001    -1.3401
2742 1.1001     1.3401
 872
2743 1.1001     1.4001
 873
2744 1.1001    -1.4201
2745 1.1001     1.4201
 874
2746 1.1001    -1.4401
2747 1.1001     1.4401
 875
2748 1.1001     1.5001
 876
2749 1.1001    -1.5201
2750 1.1001     1.5201
 877
2751 1.1001    -1.5401
2752 1.1001     1.5401
 878
2753 1.1001     1.6001
 879
2754 1.1001    -1.6201
2755 1.1001     1.6201
 880
2756 1.1001    -1.6401
2757 1.1001     1.6401
 881
2758 1.1001     1.7001
 882
2759 1.1001    -1.7201
2760 1.1001     1.7201
 883
2761 1.1001    -1.7401
2762 1.1001     1.7401
 884
2763-1.1102
2764-1.1101     1.1101
2765 1.1102
 885
2766-1.1101    -1.1301
2767-1.1101     1.1301
2768 1.1101    -1.1301
2769 1.1101     1.1301
 886
2770-1.1101    -1.2101
2771-1.1101     1.2101
2772 1.1101    -1.2101
2773 1.1101     1.2101
 887
2774-1.1101    -1.2301
2775-1.1101     1.2301
2776 1.1101    -1.2301
2777 1.1101     1.2301
 888
2778-1.1101    -1.3101
2779-1.1101     1.3101
2780 1.1101    -1.3101
2781 1.1101     1.3101
 889
2782-1.1101    -1.3301
2783-1.1101     1.3301
2784 1.1101    -1.3301
2785 1.1101     1.3301
 890
2786-1.1101    -1.4101
2787-1.1101     1.4101
2788 1.1101    -1.4101
2789 1.1101     1.4101
 891
2790-1.1101    -1.4301
2791-1.1101     1.4301
2792 1.1101    -1.4301
2793 1.1101     1.4301
 892
2794-1.1101    -1.5101
2795-1.1101     1.5101
2796 1.1101    -1.5101
2797 1.1101     1.5101
 893
2798-1.1101    -1.5301
2799-1.1101     1.5301
2800 1.1101    -1.5301
2801 1.1101     1.5301
 894
2802-1.1101    -1.6101
2803-1.1101     1.6101
2804 1.1101    -1.6101
2805 1.1101     1.6101
 895
2806-1.1101    -1.6301
2807-1.1101     1.6301
2808 1.1101    -1.6301
2809 1.1101     1.6301
 896
2810-1.1101    -1.7101
2811-1.1101     1.7101
2812 1.1101    -1.7101
2813 1.1101     1.7101
 897
2814-1.1101    -1.7301
2815-1.1101     1.7301
2816 1.1101    -1.7301
2817 1.1101     1.7301
 898
2818-1.1202
2819-1.1201     1.1201
2820 1.1202
 899
2821-1.1201    -1.1401
2822-1.1201     1.1401
2823 1.1201    -1.1401
2824 1.1201     1.1401
 900
2825-1.1201     1.2001
2826 1.1201     1.2001
 901
2827-1.1201    -1.2201
2828-1.1201     1.2201
2829 1.1201    -1.2201
2830 1.1201     1.2201
 902
2831-1.1201    -1.2401
2832-1.1201     1.2401
2833 1.1201    -1.2401
2834 1.1201     1.2401
 903
2835-1.1201     1.3001
2836 1.1201     1.3001
 904
2837-1.1201    -1.3201
2838-1.1201     1.3201
2839 1.1201    -1.3201
2840 1.1201     1.3201
 905
2841-1.1201    -1.3401
2842-1.1201     1.3401
2843 1.1201    -1.3401
2844 1.1201     1.3401
 906
2845-1.1201     1.4001
2846 1.1201     1.4001
 907
2847-1.1201    -1.4201
2848-1.1201     1.4201
2849 1.1201    -1.4201
2850 1.1201     1.4201
 908
2851-1.1201    -1.4401
2852-1.1201     1.4401
2853 1.1201    -1.4401
2854 1.1201     1.4401
 909
2855-1.1201     1.5001
2856 1.1201     1.5001
 910
2857-1.1201    -1.5201
2858-1.1201     1.5201
2859 1.1201    -1.5201
2860 1.1201     1.5201
 911
2861-1.1201    -1.5401
2862-1.1201     1.5401
2863 1.1201    -1.5401
2864 1.1201     1.5401
 912
2865-1.1201     1.6001
2866 1.1201     1.6001
 913
2867-1.1201    -1.6201
2868-1.1201     1.6201
2869 1.1201    -1.6201
2870 1.1201     1.6201
 914
2871-1.1201    -1.6401
2872-1.1201     1.6401
2873 1.1201    -1.6401
2874 1.1201     1.6401
 915
2875-1.1201     1.7001
2876 1.1201     1.7001
 916
2877-1.1201    -1.7201
2878-1.1201     1.7201
2879 1.1201    -1.7201
2880 1.1201     1.7201
 917
2881-1.1201    -1.7401
2882-1.1201     1.7401
2883 1.1201    -1.7401
2884 1.1201     1.7401
 918
2885-1.1302
2886-1.1301     1.1301
2887 1.1302
 919
2888-1.1301    -1.2101
2889-1.1301     1.2101
2890 1.1301    -1.2101
2891 1.1301     1.2101
 920
2892-1.1301    -1.2301
2893-1.1301     1.2301
2894 1.1301    -1.2301
2895 1.1301     1.2301
 921
2896-1.1301    -1.3101
2897-1.1301     1.3101
2898 1.1301    -1.3101
2899 1.1301     1.3101
 922
2900-1.1301    -1.3301
2901-1.1301     1.3301
2902 1.1301    -1.3301
2903 1.1301     1.3301
 923
2904-1.1301    -1.4101
2905-1.1301     1.4101
2906 1.1301    -1.4101
2907 1.1301     1.4101
 924
2908-1.1301    -1.4301
2909-1.1301     1.4301
2910 1.1301    -1.4301
2911 1.1301     1.4301
 925
2912-1.1301    -1.5101
2913-1.1301     1.5101
2914 1.1301    -1.5101
2915 1.1301     1.5101
 926
2916-1.1301    -1.5301
2917-1.1301     1.5301
2918 1.1301    -1.5301
2919 1.1301     1.5301
 927
2920-1.1301    -1.6101
2921-1.1301     1.6101
2922 1.1301    -1.6101
2923 1.1301     1.6101
 928
2924-1.1301    -1.6301
2925-1.1301     1.6301
2926 1.1301    -1.6301
2927 1.1301     1.6301
 929
2928-1.1301    -1.7101
2929-1.1301     1.7101
2930 1.1301    -1.7101
2931 1.1301     1.7101
 930
2932-1.1301    -1.7301
2933-1.1301     1.7301
2934 1.1301    -1.7301
2935 1.1301     1.7301
 931
2936-1.1402
2937-1.1401     1.1401
2938 1.1402
 932
2939-1.1401     1.2001
2940 1.1401     1.2001
 933
2941-1.1401    -1.2201
2942-1.1401     1.2201
2943 1.1401    -1.2201
2944 1.1401     1.2201
 934
2945-1.1401    -1.2401
2946-1.1401     1.2401
2947 1.1401    -1.2401
2948 1.1401     1.2401
 935
2949-1.1401     1.3001
2950 1.1401     1.3001
 936
2951-1.1401    -1.3201
2952-1.1401     1.3201
2953 1.1401    -1.3201
2954 1.1401     1.3201
 937
2955-1.1401    -1.3401
2956-1.1401     1.3401
2957 1.1401    -1.3401
2958 1.1401     1.3401
 938
2959-1.1401     1.4001
2960 1.1401     1.4001
 939
2961-1.1401    -1.4201
2962-1.1401     1.4201
2963 1.1401    -1.4201
2964 1.1401     1.4201
 940
2965-1.1401    -1.4401
2966-1.1401     1.4401
2967 1.1401    -1.4401
2968 1.1401     1.4401
 941
2969-1.1401     1.5001
2970 1.1401     1.5001
 942
2971-1.1401    -1.5201
2972-1.1401     1.5201
2973 1.1401    -1.5201
2974 1.1401     1.5201
 943
2975-1.1401    -1.5401
2976-1.1401     1.5401
2977 1.1401    -1.5401
2978 1.1401     1.5401
 944
2979-1.1401     1.6001
2980 1.1401     1.6001
 945
2981-1.1401    -1.6201
2982-1.1401     1.6201
2983 1.1401    -1.6201
2984 1.1401     1.6201
 946
2985-1.1401    -1.6401
2986-1.1401     1.6401
2987 1.1401    -1.6401
2988 1.1401     1.6401
 947
2989-1.1401     1.7001
2990 1.1401     1.7001
 948
2991-1.1401    -1.7201
2992-1.1401     1.7201
2993 1.1401    -1.7201
2994 1.1401     1.7201
 949
2995-1.1401    -1.7401
2996-1.1401     1.7401
2997 1.1401    -1.7401
2998 1.1401     1.7401
 950
2999 1.2002
 951
3000 1.2001    -1.2201
3001 1.2001     1.2201
 952
3002 1.2001    -1.2401
3003 1.2001     1.2401
 953
3004 1.2001     1.3001
 954
3005 1.2001    -1.3201
3006 1.2001     1.3201
 955
3007 1.2001    -1.3401
3008 1.2001     1.3401
 956
3009 1.2001     1.4001
 957
3010 1.2001    -1.4201
3011 1.2001     1.4201
 958
3012 1.2001    -1.4401
3013 1.2001     1.4401
 959
3014 1.2001     1.5001
 960
3015 1.2001    -1.5201
3016 1.2001     1.5201
 961
3017 1.2001    -1.5401
3018 1.2001     1.5401
 962
3019 1.2001     1.6001
 963
3020 1.2001    -1.6201
3021 1.2001     1.6201
 964
3022 1.2001    -1.6401
3023 1.2001     1.6401
 965
3024 1.2001     1.7001
 966
3025 1.2001    -1.7201
3026 1.2001     1.7201
 967
3027 1.2001    -1.7401
3028 1.2001     1.7401
 968
3029-1.2102
3030-1.2101     1.2101
3031 1.2102
 969
3032-1.2101    -1.2301
3033-1.2101     1.2301
3034 1.2101    -1.2301
3035 1.2101     1.2301
 970
3036-1.2101    -1.3101
3037-1.2101     1.3101
3038 1.2101    -1.3101
3039 1.2101     1.3101
 971
3040-1.2101    -1.3301
3041-1.2101     1.3301
3042 1.2101    -1.3301
3043 1.2101     1.3301
 972
3044-1.2101    -1.4101
3045-1.2101     1.4101
3046 1.2101    -1.4101
3047 1.2101     1.4101
 973
3048-1.2101    -1.4301
3049-1.2101     1.4301
3050 1.2101    -1.4301
3051 1.2101     1.4301
 974
3052-1.2101    -1.5101
3053-1.2101     1.5101
3054 1.2101    -1.5101
3055 1.2101     1.5101
 975
3056-1.2101    -1.5301
3057-1.2101     1.5301
3058 1.2101    -1.5301
3059 1.2101     1.5301
 976
3060-1.2101    -1.6101
3061-1.2101     1.6101
3062 1.2101    -1.6101
3063 1.2101     1.6101
 977
3064-1.2101    -1.6301
3065-1.2101     1.6301
3066 1.2101    -1.6301
3067 1.2101     1.6301
 978
3068-1.2101    -1.7101
3069-1.2101     1.7101
3070 1.2101    -1.7101
3071 1.2101     1.7101
 979
3072-1.2101    -1.7301
3073-1.2101     1.7301
3074 1.2101    -1.7301
3075 1.2101     1.7301
 980
3076-1.2202
3077-1.2201     1.2201
3078 1.2202
 981
3079-1.2201    -1.2401
3080-1.2201     1.2401
3081 1.2201    -1.2401
3082 1.2201     1.2401
 982
3083-1.2201     1.3001
3084 1.2201     1.3001
 983
3085-1.2201    -1.3201
3086-1.2201     1.3201
3087 1.2201    -1.3201
3088 1.2201     1.3201
 984
3089-1.2201    -1.3401
3090-1.2201     1.3401
3091 1.2201    -1.3401
3092 1.2201     1.3401
 985
3093-1.2201     1.4001
3094 1.2201     1.4001
 986
3095-1.2201    -1.4201
3096-1.2201     1.4201
3097 1.2201    -1.4201
3098 1.2201     1.4201
 987
3099-1.2201    -1.4401
3100-1.2201     1.4401
3101 1.2201    -1.4401
3102 1.2201     1.4401
 988
3103-1.2201     1.5001
3104 1.2201     1.5001
 989
3105-1.2201    -1.5201
3106-1.2201     1.5201
3107 1.2201    -1.5201
3108 1.2201     1.5201
 990
3109-1.2201    -1.5401
3110-1.2201     1.5401
3111 1.2201    -1.5401
3112 1.2201     1.5401
 991
3113-1.2201     1.6001
3114 1.2201     1.6001
 992
3115-1.2201    -1.6201
3116-1.2201     1.6201
3117 1.2201    -1.6201
3118 1.2201     1.6201
 993
3119-1.2201    -1.6401
3120-1.2201     1.6401
3121 1.2201    -1.6401
3122 1.2201     1.6401
 994
3123-1.2201     1.7001
3124 1.2201     1.7001
 995
3125-1.2201    -1.7201
3126-1.2201     1.7201
3127 1.2201    -1.7201
3128 1.2201     1.7201
 996
3129-1.2201    -1.7401
3130-1.2201     1.7401
3131 1.2201    -1.7401
3132 1.2201     1.7401
 997
3133-1.2302
3134-1.2301     1.2301
3135 1.2302
 998
3136-1.2301    -1.3101
3137-1.2301     1.3101
3138 1.2301    -1.3101
3139 1.2301     1.3101
 999
3140-1.2301    -1.3301
3141-1.2301     1.3301
3142 1.2301    -1.3301
3143 1.2301     1.3301
1000
3144-1.2301    -1.4101
3145-1.2301     1.4101
3146 1.2301    -1.4101
3147 1.2301     1.4101
1001
3148-1.2301    -1.4301
3149-1.2301     1.4301
3150 1.2301    -1.4301
3151 1.2301     1.4301
1002
3152-1.2301    -1.5101
3153-1.2301     1.5101
3154 1.2301    -1.5101
3155 1.2301     1.5101
1003
3156-1.2301    -1.5301
3157-1.2301     1.5301
3158 1.2301    -1.5301
3159 1.2301     1.5301
1004
3160-1.2301    -1.6101
3161-1.2301     1.6101
3162 1.2301    -1.6101
3163 1.2301     1.6101
1005
3164-1.2301    -1.6301
3165-1.2301     1.6301
3166 1.2301    -1.6301
3167 1.2301     1.6301
1006
3168-1.2301    -1.7101
3169-1.2301     1.7101
3170 1.2301    -1.7101
3171 1.2301     1.7101
1007
3172-1.2301    -1.7301
3173-1.2301     1.7301
3174 1.2301    -1.7301
3175 1.2301     1.7301
1008
3176-1.2402
3177-1.2401     1.2401
3178 1.2402
1009
3179-1.2401     1.3001
3180 1.2401     1.3001
1010
3181-1.2401    -1.3201
3182-1.2401     1.3201
3183 1.2401    -1.3201
3184 1.2401     1.3201
1011
3185-1.2401    -1.3401
3186-1.2401     1.3401
3187 1.2401    -1.3401
3188 1.2401     1.3401
1012
3189-1.2401     1.4001
3190 1.2401     1.4001
1013
3191-1.2401    -1.4201
3192-1.2401     1.4201
3193 1.2401    -1.4201
3194 1.2401     1.4201
1014
3195-1.2401    -1.4401
3196-1.2401     1.4401
3197 1.2401    -1.4401
3198 1.2401     1.4401
1015
3199-1.2401     1.5001
3200 1.2401     1.5001
1016
3201-1.2401    -1.5201
3202-1.2401     1.5201
3203 1.2401    -1.5201
3204 1.2401     1.5201
1017
3205-1.2401    -1.5401
3206-1.2401     1.5401
3207 1.2401    -1.5401
3208 1.2401     1.5401
1018
3209-1.2401     1.6001
3210 1.2401     1.6001
1019
3211-1.2401    -1.6201
3212-1.2401     1.6201
3213 1.2401    -1.6201
3214 1.2401     1.6201
1020
3215-1.2401    -1.6401
3216-1.2401     1.6401
3217 1.2401    -1.6401
3218 1.2401     1.6401
1021
3219-1.2401     1.7001
3220 1.2401     1.7001
1022
3221-1.2401    -1.7201
3222-1.2401     1.7201
3223 1.2401    -1.7201
3224 1.2401     1.7201
1023
3225-1.2401    -1.7401
3226-1.2401     1.7401
3227 1.2401    -1.7401
3228 1.2401     1.7401
1024
3229 1.3002
1025
3230 1.3001    -1.3201
3231 1.3001     1.3201
1026
3232 1.3001    -1.3401
3233 1.3001     1.3401
1027
3234 1.3001     1.4001
1028
3235 1.3001    -1.4201
3236 1.3001     1.4201
1029
3237 1.3001    -1.4401
3238 1.3001     1.4401
1030
3239 1.3001     1.5001
1031
3240 1.3001    -1.5201
3241 1.3001     1.5201
1032
3242 1.3001    -1.5401
3243 1.3001     1.5401
1033
3244 1.3001     1.6001
1034
3245 1.3001    -1.6201
3246 1.3001     1.6201
1035
3247 1.3001    -1.6401
3248 1.3001     1.6401
1036
3249 1.3001     1.7001
1037
3250 1.3001    -1.7201
3251 1.3001     1.7201
1038
3252 1.3001    -1.7401
3253 1.3001     1.7401
1039
3254-1.3102
3255-1.3101     1.3101
3256 1.3102
1040
3257-1.3101    -1.3301
3258-1.3101     1.3301
3259 1.3101    -1.3301
3260 1.3101     1.3301
1041
3261-1.3101    -1.4101
3262-1.3101     1.4101
3263 1.3101    -1.4101
3264 1.3101     1.4101
1042
3265-1.3101    -1.4301
3266-1.3101     1.4301
3267 1.3101    -1.4301
3268 1.3101     1.4301
1043
3269-1.3101    -1.5101
3270-1.3101     1.5101
3271 1.3101    -1.5101
3272 1.3101     1.5101
1044
3273-1.3101    -1.5301
3274-1.3101     1.5301
3275 1.3101    -1.5301
3276 1.3101     1.5301
1045
3277-1.3101    -1.6101
3278-1.3101     1.6101
3279 1.3101    -1.6101
3280 1.3101     1.6101
1046
3281-1.3101    -1.6301
3282-1.3101     1.6301
3283 1.3101    -1.6301
3284 1.3101     1.6301
1047
3285-1.3101    -1.7101
3286-1.3101     1.7101
3287 1.3101    -1.7101
3288 1.3101     1.7101
1048
3289-1.3101    -1.7301
3290-1.3101     1.7301
3291 1.3101    -1.7301
3292 1.3101     1.7301
1049
3293-1.3202
3294-1.3201     1.3201
3295 1.3202
1050
3296-1.3201    -1.3401
3297-1.3201     1.3401
3298 1.3201    -1.3401
3299 1.3201     1.3401
1051
3300-1.3201     1.4001
3301 1.3201     1.4001
1052
3302-1.3201    -1.4201
3303-1.3201     1.4201
3304 1.3201    -1.4201
3305 1.3201     1.4201
1053
3306-1.3201    -1.4401
3307-1.3201     1.4401
3308 1.3201    -1.4401
3309 1.3201     1.4401
1054
3310-1.3201     1.5001
3311 1.3201     1.5001
1055
3312-1.3201    -1.5201
3313-1.3201     1.5201
3314 1.3201    -1.5201
3315 1.3201     1.5201
1056
3316-1.3201    -1.5401
3317-1.3201     1.5401
3318 1.3201    -1.5401
3319 1.3201     1.5401
1057
3320-1.3201     1.6001
3321 1.3201     1.6001
1058
3322-1.3201    -1.6201
3323-1.3201     1.6201
3324 1.3201    -1.6201
3325 1.3201     1.6201
1059
3326-1.3201    -1.6401
3327-1.3201     1.6401
3328 1.3201    -1.6401
3329 1.3201     1.6401
1060
3330-1.3201     1.7001
3331 1.3201     1.7001
1061
3332-1.3201    -1.7201
3333-1.3201     1.7201
3334 1.3201    -1.7201
3335 1.3201     1.7201
1062
3336-1.3201    -1.7401
3337-1.3201     1.7401
3338 1.3201    -1.7401
3339 1.3201     1.7401
1063
3340-1.3302
3341-1.3301     1.3301
3342 1.3302
1064
3343-1.3301    -1.4101
3344-1.3301     1.4101
3345 1.3301    -1.4101
3346 1.3301     1.4101
1065
3347-1.3301    -1.4301
3348-1.3301     1.4301
3349 1.3301    -1.4301
3350 1.3301     1.4301
1066
3351-1.3301    -1.5101
3352-1.3301     1.5101
3353 1.3301    -1.5101
3354 1.3301     1.5101
1067
3355-1.3301    -1.5301
3356-1.3301     1.5301
3357 1.3301    -1.5301
3358 1.3301     1.5301
1068
3359-1.3301    -1.6101
3360-1.3301     1.6101
3361 1.3301    -1.6101
3362 1.3301     1.6101
1069
3363-1.3301    -1.6301
3364-1.3301     1.6301
3365 1.3301    -1.6301
3366 1.3301     1.6301
1070
3367-1.3301    -1.7101
3368-1.3301     1.7101
3369 1.3301    -1.7101
3370 1.3301     1.7101
1071
3371-1.3301    -1.7301
3372-1.3301     1.7301
3373 1.3301    -1.7301
3374 1.3301     1.7301
1072
3375-1.3402
3376-1.3401     1.3401
3377 1.3402
1073
3378-1.3401     1.4001
3379 1.3401     1.4001
1074
3380-1.3401    -1.4201
3381-1.3401     1.4201
3382 1.3401    -1.4201
3383 1.3401     1.4201
1075
3384-1.3401    -1.4401
3385-1.3401     1.4401
3386 1.3401    -1.4401
3387 1.3401     1.4401
1076
3388-1.3401     1.5001
3389 1.3401     1.5001
1077
3390-1.3401    -1.5201
3391-1.3401     1.5201
3392 1.3401    -1.5201
3393 1.3401     1.5201
1078
3394-1.3401    -1.5401
3395-1.3401     1.5401
3396 1.3401    -1.5401
3397 1.3401     1.5401
1079
3398-1.3401     1.6001
3399 1.3401     1.6001
1080
3400-1.3401    -1.6201
3401-1.3401     1.6201
3402 1.3401    -1.6201
3403 1.3401     1.6201
1081
3404-1.3401    -1.6401
3405-1.3401     1.6401
3406 1.3401    -1.6401
3407 1.3401     1.6401
1082
3408-1.3401     1.7001
3409 1.3401     1.7001
1083
3410-1.3401    -1.7201
3411-1.3401     1.7201
3412 1.3401    -1.7201
3413 1.3401     1.7201
1084
3414-1.3401    -1.7401
3415-1.3401     1.7401
3416 1.3401    -1.7401
3417 1.3401     1.7401
1085
3418 1.4002
1086
3419 1.4001    -1.4201
3420 1.4001     1.4201
1087
3421 1.4001    -1.4401
3422 1.4001     1.4401
1088
3423 1.4001     1.5001
1089
3424 1.4001    -1.5201
3425 1.4001     1.5201
1090
3426 1.4001    -1.5401
3427 1.4001     1.5401
1091
3428 1.4001     1.6001
1092
3429 1.4001    -1.6201
3430 1.4001     1.6201
1093
3431 1.4001    -1.6401
3432 1.4001     1.6401
1094
3433 1.4001     1.7001
1095
3434 1.4001    -1.7201
3435 1.4001     1.7201
1096
3436 1.4001    -1.7401
3437 1.4001     1.7401
1097
3438-1.4102
3439-1.4101     1.4101
3440 1.4102
1098
3441-1.4101    -1.4301
3442-1.4101     1.4301
3443 1.4101    -1.4301
3444 1.4101     1.4301
1099
3445-1.4101    -1.5101
3446-1.4101     1.5101
3447 1.4101    -1.5101
3448 1.4101     1.5101
1100
3449-1.4101    -1.5301
3450-1.4101     1.5301
3451 1.4101    -1.5301
3452 1.4101     1.5301
1101
3453-1.4101    -1.6101
3454-1.4101     1.6101
3455 1.4101    -1.6101
3456 1.4101     1.6101
1102
3457-1.4101    -1.6301
3458-1.4101     1.6301
3459 1.4101    -1.6301
3460 1.4101     1.6301
1103
3461-1.4101    -1.7101
3462-1.4101     1.7101
3463 1.4101    -1.7101
3464 1.4101     1.7101
1104
3465-1.4101    -1.7301
3466-1.4101     1.7301
3467 1.4101    -1.7301
3468 1.4101     1.7301
1105
3469-1.4202
3470-1.4201     1.4201
3471 1.4202
1106
3472-1.4201    -1.4401
3473-1.4201     1.4401
3474 1.4201    -1.4401
3475 1.4201     1.4401
1107
3476-1.4201     1.5001
3477 1.4201     1.5001
1108
3478-1.4201    -1.5201
3479-1.4201     1.5201
3480 1.4201    -1.5201
3481 1.4201     1.5201
1109
3482-1.4201    -1.5401
3483-1.4201     1.5401
3484 1.4201    -1.5401
3485 1.4201     1.5401
1110
3486-1.4201     1.6001
3487 1.4201     1.6001
1111
3488-1.4201    -1.6201
3489-1.4201     1.6201
3490 1.4201    -1.6201
3491 1.4201     1.6201
1112
3492-1.4201    -1.6401
3493-1.4201     1.6401
3494 1.4201    -1.6401
3495 1.4201     1.6401
1113
3496-1.4201     1.7001
3497 1.4201     1.7001
1114
3498-1.4201    -1.7201
3499-1.4201     1.7201
3500 1.4201    -1.7201
3501 1.4201     1.7201
1115
3502-1.4201    -1.7401
3503-1.4201     1.7401
3504 1.4201    -1.7401
3505 1.4201     1.7401
1116
3506-1.4302
3507-1.4301     1.4301
3508 1.4302
1117
3509-1.4301    -1.5101
3510-1.4301     1.5101
3511 1.4301    -1.5101
3512 1.4301     1.5101
1118
3513-1.4301    -1.5301
3514-1.4301     1.5301
3515 1.4301    -1.5301
3516 1.4301     1.5301
1119
3517-1.4301    -1.6101
3518-1.4301     1.6101
3519 1.4301    -1.6101
3520 1.4301     1.6101
1120
3521-1.4301    -1.6301
3522-1.4301     1.6301
3523 1.4301    -1.6301
3524 1.4301     1.6301
1121
3525-1.4301    -1.7101
3526-1.4301     1.7101
3527 1.4301    -1.7101
3528 1.4301     1.7101
1122
3529-1.4301    -1.7301
3530-1.4301     1.7301
3531 1.4301    -1.7301
3532 1.4301     1.7301
1123
3533-1.4402
3534-1.4401     1.4401
3535 1.4402
1124
3536-1.4401     1.5001
3537 1.4401     1.5001
1125
3538-1.4401    -1.5201
3539-1.4401     1.5201
3540 1.4401    -1.5201
3541 1.4401     1.5201
1126
3542-1.4401    -1.5401
3543-1.4401     1.5401
3544 1.4401    -1.5401
3545 1.4401     1.5401
1127
3546-1.4401     1.6001
3547 1.4401     1.6001
1128
3548-1.4401    -1.6201
3549-1.4401     1.6201
3550 1.4401    -1.6201
3551 1.4401     1.6201
1129
3552-1.4401    -1.6401
3553-1.4401     1.6401
3554 1.4401    -1.6401
3555 1.4401     1.6401
1130
3556-1.4401     1.7001
3557 1.4401     1.7001
1131
3558-1.4401    -1.7201
3559-1.4401     1.7201
3560 1.4401    -1.7201
3561 1.4401     1.7201
1132
3562-1.4401    -1.7401
3563-1.4401     1.7401
3564 1.4401    -1.7401
3565 1.4401     1.7401
1133
3566 1.5002
1134
3567 1.5001    -1.5201
3568 1.5001     1.5201
1135
3569 1.5001    -1.5401
3570 1.5001     1.5401
1136
3571 1.5001     1.6001
1137
3572 1.5001    -1.6201
3573 1.5001     1.6201
1138
3574 1.5001    -1.6401
3575 1.5001     1.6401
1139
3576 1.5001     1.7001
1140
3577 1.5001    -1.7201
3578 1.5001     1.7201
1141
3579 1.5001    -1.7401
3580 1.5001     1.7401
1142
3581-1.5102
3582-1.5101     1.5101
3583 1.5102
1143
3584-1.5101    -1.5301
3585-1.5101     1.5301
3586 1.5101    -1.5301
3587 1.5101     1.5301
1144
3588-1.5101    -1.6101
3589-1.5101     1.6101
3590 1.5101    -1.6101
3591 1.5101     1.6101
1145
3592-1.5101    -1.6301
3593-1.5101     1.6301
3594 1.5101    -1.6301
3595 1.5101     1.6301
1146
3596-1.5101    -1.7101
3597-1.5101     1.7101
3598 1.5101    -1.7101
3599 1.5101     1.7101
1147
3600-1.5101    -1.7301
3601-1.5101     1.7301
3602 1.5101    -1.7301
3603 1.5101     1.7301
1148
3604-1.5202
3605-1.5201     1.5201
3606 1.5202
1149
3607-1.5201    -1.5401
3608-1.5201     1.5401
3609 1.5201    -1.5401
3610 1.5201     1.5401
1150
3611-1.5201     1.6001
3612 1.5201     1.6001
1151
3613-1.5201    -1.6201
3614-1.5201     1.6201
3615 1.5201    -1.6201
3616 1.5201     1.6201
1152
3617-1.5201    -1.6401
3618-1.5201     1.6401
3619 1.5201    -1.6401
3620 1.5201     1.6401
1153
3621-1.5201     1.7001
3622 1.5201     1.7001
1154
3623-1.5201    -1.7201
3624-1.5201     1.7201
3625 1.5201    -1.7201
3626 1.5201     1.7201
1155
3627-1.5201    -1.7401
3628-1.5201     1.7401
3629 1.5201    -1.7401
3630 1.5201     1.7401
1156
3631-1.5302
3632-1.5301     1.5301
3633 1.5302
1157
3634-1.5301    -1.6101
3635-1.5301     1.6101
3636 1.5301    -1.6101
3637 1.5301     1.6101
1158
3638-1.5301    -1.6301
3639-1.5301     1.6301
3640 1.5301    -1.6301
3641 1.5301     1.6301
1159
3642-1.5301    -1.7101
3643-1.5301     1.7101
3644 1.5301    -1.7101
3645 1.5301     1.7101
1160
3646-1.5301    -1.7301
3647-1.5301     1.7301
3648 1.5301    -1.7301
3649 1.5301     1.7301
1161
3650-1.5402
3651-1.5401     1.5401
3652 1.5402
1162
3653-1.5401     1.6001
3654 1.5401     1.6001
1163
3655-1.5401    -1.6201
3656-1.5401     1.6201
3657 1.5401    -1.6201
3658 1.5401     1.6201
1164
3659-1.5401    -1.6401
3660-1.5401     1.6401
3661 1.5401    -1.6401
3662 1.5401     1.6401
1165
3663-1.5401     1.7001
3664 1.5401     1.7001
1166
3665-1.5401    -1.7201
3666-1.5401     1.7201
3667 1.5401    -1.7201
3668 1.5401     1.7201
1167
3669-1.5401    -1.7401
3670-1.5401     1.7401
3671 1.5401    -1.7401
3672 1.5401     1.7401
1168
3673 1.6002
1169
3674 1.6001    -1.6201
3675 1.6001     1.6201
1170
3676 1.6001    -1.6401
3677 1.6001     1.6401
1171
3678 1.6001     1.7001
1172
3679 1.6001    -1.7201
3680 1.6001     1.7201
1173
3681 1.6001    -1.7401
3682 1.6001     1.7401
1174
3683-1.6102
3684-1.6101     1.6101
3685 1.6102
1175
3686-1.6101    -1.6301
3687-1.6101     1.6301
3688 1.6101    -1.6301
3689 1.6101     1.6301
1176
3690-1.6101    -1.7101
3691-1.6101     1.7101
3692 1.6101    -1.7101
3693 1.6101     1.7101
1177
3694-1.6101    -1.7301
3695-1.6101     1.7301
3696 1.6101    -1.7301
3697 1.6101     1.7301
1178
3698-1.6202
3699-1.6201     1.6201
3700 1.6202
1179
3701-1.6201    -1.6401
3702-1.6201     1.6401
3703 1.6201    -1.6401
3704 1.6201     1.6401
1180
3705-1.6201     1.7001
3706 1.6201     1.7001
1181
3707-1.6201    -1.7201
3708-1.6201     1.7201
3709 1.6201    -1.7201
3710 1.6201     1.7201
1182
3711-1.6201    -1.7401
3712-1.6201     1.7401
3713 1.6201    -1.7401
3714 1.6201     1.7401
1183
3715-1.6302
3716-1.6301     1.6301
3717 1.6302
1184
3718-1.6301    -1.7101
3719-1.6301     1.7101
3720 1.6301    -1.7101
3721 1.6301     1.7101
1185
3722-1.6301    -1.7301
3723-1.6301     1.7301
3724 1.6301    -1.7301
3725 1.6301     1.7301
1186
3726-1.6402
3727-1.6401     1.6401
3728 1.6402
1187
3729-1.6401     1.7001
3730 1.6401     1.7001
1188
3731-1.6401    -1.7201
3732-1.6401     1.7201
3733 1.6401    -1.7201
3734 1.6401     1.7201
1189
3735-1.6401    -1.7401
3736-1.6401     1.7401
3737 1.6401    -1.7401
3738 1.6401     1.7401
1190
3739 1.7002
1191
3740 1.7001    -1.7201
3741 1.7001     1.7201
1192
3742 1.7001    -1.7401
3743 1.7001     1.7401
1193
3744-1.7102
3745-1.7101     1.7101
3746 1.7102
1194
3747-1.7101    -1.7301
3748-1.7101     1.7301
3749 1.7101    -1.7301
3750 1.7101     1.7301
1195
3751-1.7202
3752-1.7201     1.7201
3753 1.7202
1196
3754-1.7201    -1.7401
3755-1.7201     1.7401
3756 1.7201    -1.7401
3757 1.7201     1.7401
1197
3758-1.7302
3759-1.7301     1.7301
3760 1.7302
1198
3761-1.7402
3762-1.7401     1.7401
3763 1.7402
