 Sr  
  Z = 38.0
 Am = 87.0
 Nso=   12# number of core orbitals (defines DF operator)
 Nv =  343# number of valence & virtual orbitals
 Ksg=    1# defines Hamiltonian: 1-DF, 3-DF+Breit
 Kdg=    1# diagonalization of Hamiltonian (0=no,1,2=yes)
 orb= 5s 1# first orbital for diagonalization
 Kkin    1# kinetic balance (0,1,or 2)
 orb= 4f 5# first orbital to apply kin.bal.
 orb= 4p 3# last frozen orbital
 Merr    0# allowed number of warnings.
kout= 0   # detail rate in the output
kbrt= 2   # 0,1,2 - Coulomb, Gaunt, Breit
----------------------------------------------------------
     0.1002     0.2002    -0.2102     0.2104     0.3002    -0.3102
     0.3104    -0.3204     0.3206     0.4002    -0.4102     0.4104
 
  1  0.5001 
  2 -0.5101 
  3  0.5101 
  4 -0.4201 
  5  0.4201 
 
  6  0.6001 
  7 -0.6101 
  8  0.6101 
  9 -0.5201 
 10  0.5201 
 
 11  0.7001 
 12 -0.7101 
 13  0.7101 
 14 -0.6201 
 15  0.6201 
 16 -0.4301  3 -0.4301
 17  0.4301  3  0.4301
 18 -0.5301  3 -0.5301
 19  0.5301  3  0.5301
 20 -0.5401  3 -0.5401
 21  0.5401  3  0.5401
 22 -0.6301  3 -0.6301
 23  0.6301  3  0.6301
 24 -0.6401  3 -0.6401
 25  0.6401  3  0.6401
 26 -0.6501  3 -0.6501
 27  0.6501  3  0.6501
 28 -0.7201  3 -0.7201
 29  0.7201  3  0.7201
 30 -0.7301  3 -0.7301
 31  0.7301  3  0.7301
 32 -0.7401  3 -0.7401
 33  0.7401  3  0.7401
 34 -0.7501  3 -0.7501
 35  0.7501  3  0.7501
 
 36  0.8001  3  0.8001
 37 -0.8101  3 -0.8101
 38  0.8101  3  0.8101
 39 -0.8201  3 -0.8201
 40  0.8201  3  0.8201
 41 -0.8301  3 -0.8301
 42  0.8301  3  0.8301
 43 -0.8401  3 -0.8401
 44  0.8401  3  0.8401
 45 -0.8501  3 -0.8501
 46  0.8501  3  0.8501
 
 47  0.9001  3  0.9001
 48 -0.9101  3 -0.9101
 49  0.9101  3  0.9101
 50 -0.9201  3 -0.9201
 51  0.9201  3  0.9201
 52 -0.9301  3 -0.9301
 53  0.9301  3  0.9301
 54 -0.9401  3 -0.9401
 55  0.9401  3  0.9401
 56 -0.9501  3 -0.9501
 57  0.9501  3  0.9501
 
 58  1.0001  3  1.0001
 59 -1.0101  3 -1.0101
 60  1.0101  3  1.0101
 61 -1.0201  3 -1.0201
 62  1.0201  3  1.0201
 63 -1.0301  3 -1.0301
 64  1.0301  3  1.0301
 65 -1.0401  3 -1.0401
 66  1.0401  3  1.0401
 67 -1.0501  3 -1.0501
 68  1.0501  3  1.0501
 
 69  1.1001  3  1.1001
 70 -1.1101  3 -1.1101
 71  1.1101  3  1.1101
 72 -1.1201  3 -1.1201
 73  1.1201  3  1.1201
 74 -1.1301  3 -1.1301
 75  1.1301  3  1.1301
 76 -1.1401  3 -1.1401
 77  1.1401  3  1.1401
 78 -1.1501  3 -1.1501
 79  1.1501  3  1.1501
 
 80  1.2001  3  1.2001
 81 -1.2101  3 -1.2101
 82  1.2101  3  1.2101
 83 -1.2201  3 -1.2201
 84  1.2201  3  1.2201
 85 -1.2301  3 -1.2301
 86  1.2301  3  1.2301
 87 -1.2401  3 -1.2401
 88  1.2401  3  1.2401
 89 -1.2501  3 -1.2501
 90  1.2501  3  1.2501
 
 91  1.3001  3  1.3001
 92 -1.3101  3 -1.3101
 93  1.3101  3  1.3101
 94 -1.3201  3 -1.3201
 95  1.3201  3  1.3201
 96 -1.3301  3 -1.3301
 97  1.3301  3  1.3301
 98 -1.3401  3 -1.3401
 99  1.3401  3  1.3401
100 -1.3501  3 -1.3501
101  1.3501  3  1.3501
 
102  1.4001  3  1.4001
103 -1.4101  3 -1.4101
104  1.4101  3  1.4101
105 -1.4201  3 -1.4201
106  1.4201  3  1.4201
107 -1.4301  3 -1.4301
108  1.4301  3  1.4301
109 -1.4401  3 -1.4401
110  1.4401  3  1.4401
111 -1.4501  3 -1.4501
112  1.4501  3  1.4501
 
113  1.5001  3  1.5001
114 -1.5101  3 -1.5101
115  1.5101  3  1.5101
116 -1.5201  3 -1.5201
117  1.5201  3  1.5201
118 -1.5301  3 -1.5301
119  1.5301  3  1.5301
120 -1.5401  3 -1.5401
121  1.5401  3  1.5401
122 -1.5501  3 -1.5501
123  1.5501  3  1.5501
 
124  1.6001  3  1.6001
125 -1.6101  3 -1.6101
126  1.6101  3  1.6101
127 -1.6201  3 -1.6201
128  1.6201  3  1.6201
129 -1.6301  3 -1.6301
130  1.6301  3  1.6301
131 -1.6401  3 -1.6401
132  1.6401  3  1.6401
133 -1.6501  3 -1.6501
134  1.6501  3  1.6501
 
135  1.7001  3  1.7001
136 -1.7101  3 -1.7101
137  1.7101  3  1.7101
138 -1.7201  3 -1.7201
139  1.7201  3  1.7201
140 -1.7301  3 -1.7301
141  1.7301  3  1.7301
142 -1.7401  3 -1.7401
143  1.7401  3  1.7401
144 -1.7501  3 -1.7501
145  1.7501  3  1.7501
 
146  1.8001  3  1.8001
147 -1.8101  3 -1.8101
148  1.8101  3  1.8101
149 -1.8201  3 -1.8201
150  1.8201  3  1.8201
151 -1.8301  3 -1.8301
152  1.8301  3  1.8301
153 -1.8401  3 -1.8401
154  1.8401  3  1.8401
155 -1.8501  3 -1.8501
156  1.8501  3  1.8501
 
157  1.9001  3  1.9001
158 -1.9101  3 -1.9101
159  1.9101  3  1.9101
160 -1.9201  3 -1.9201
161  1.9201  3  1.9201
162 -1.9301  3 -1.9301
163  1.9301  3  1.9301
164 -1.9401  3 -1.9401
165  1.9401  3  1.9401
166 -1.9501  3 -1.9501
167  1.9501  3  1.9501
 
168  2.0001  3  2.0001
169 -2.0101  3 -2.0101
170  2.0101  3  2.0101
171 -2.0201  3 -2.0201
172  2.0201  3  2.0201
173 -2.0301  3 -2.0301
174  2.0301  3  2.0301
175 -2.0401  3 -2.0401
176  2.0401  3  2.0401
177 -2.0501  3 -2.0501
178  2.0501  3  2.0501
 
179  2.1001  3  2.1001
180 -2.1101  3 -2.1101
181  2.1101  3  2.1101
182 -2.1201  3 -2.1201
183  2.1201  3  2.1201
184 -2.1301  3 -2.1301
185  2.1301  3  2.1301
186 -2.1401  3 -2.1401
187  2.1401  3  2.1401
188 -2.1501  3 -2.1501
189  2.1501  3  2.1501
 
190  2.2001  3  2.2001
191 -2.2101  3 -2.2101
192  2.2101  3  2.2101
193 -2.2201  3 -2.2201
194  2.2201  3  2.2201
195 -2.2301  3 -2.2301
196  2.2301  3  2.2301
197 -2.2401  3 -2.2401
198  2.2401  3  2.2401
199 -2.2501  3 -2.2501
200  2.2501  3  2.2501
 
201  2.3001  3  2.3001
202 -2.3101  3 -2.3101
203  2.3101  3  2.3101
204 -2.3201  3 -2.3201
205  2.3201  3  2.3201
206 -2.3301  3 -2.3301
207  2.3301  3  2.3301
208 -2.3401  3 -2.3401
209  2.3401  3  2.3401
210 -2.3501  3 -2.3501
211  2.3501  3  2.3501
 
212  2.4001  3  2.4001
213 -2.4101  3 -2.4101
214  2.4101  3  2.4101
215 -2.4201  3 -2.4201
216  2.4201  3  2.4201
217 -2.4301  3 -2.4301
218  2.4301  3  2.4301
219 -2.4401  3 -2.4401
220  2.4401  3  2.4401
221 -2.4501  3 -2.4501
222  2.4501  3  2.4501
 
223  2.5001  3  2.5001
224 -2.5101  3 -2.5101
225  2.5101  3  2.5101
226 -2.5201  3 -2.5201
227  2.5201  3  2.5201
228 -2.5301  3 -2.5301
229  2.5301  3  2.5301
230 -2.5401  3 -2.5401
231  2.5401  3  2.5401
232 -2.5501  3 -2.5501
233  2.5501  3  2.5501
 
234  2.6001  3  2.6001
235 -2.6101  3 -2.6101
236  2.6101  3  2.6101
237 -2.6201  3 -2.6201
238  2.6201  3  2.6201
239 -2.6301  3 -2.6301
240  2.6301  3  2.6301
241 -2.6401  3 -2.6401
242  2.6401  3  2.6401
243 -2.6501  3 -2.6501
244  2.6501  3  2.6501
 
245  2.7001  3  2.7001
246 -2.7101  3 -2.7101
247  2.7101  3  2.7101
248 -2.7201  3 -2.7201
249  2.7201  3  2.7201
250 -2.7301  3 -2.7301
251  2.7301  3  2.7301
252 -2.7401  3 -2.7401
253  2.7401  3  2.7401
254 -2.7501  3 -2.7501
255  2.7501  3  2.7501
 
256  2.8001  3  2.8001
257 -2.8101  3 -2.8101
258  2.8101  3  2.8101
259 -2.8201  3 -2.8201
260  2.8201  3  2.8201
261 -2.8301  3 -2.8301
262  2.8301  3  2.8301
263 -2.8401  3 -2.8401
264  2.8401  3  2.8401
265 -2.8501  3 -2.8501
266  2.8501  3  2.8501
 
267  2.9001  3  2.9001
268 -2.9101  3 -2.9101
269  2.9101  3  2.9101
270 -2.9201  3 -2.9201
271  2.9201  3  2.9201
272 -2.9301  3 -2.9301
273  2.9301  3  2.9301
274 -2.9401  3 -2.9401
275  2.9401  3  2.9401
276 -2.9501  3 -2.9501
277  2.9501  3  2.9501
 
278  3.0001  3  3.0001
279 -3.0101  3 -3.0101
280  3.0101  3  3.0101
281 -3.0201  3 -3.0201
282  3.0201  3  3.0201
283 -3.0301  3 -3.0301
284  3.0301  3  3.0301
285 -3.0401  3 -3.0401
286  3.0401  3  3.0401
287 -3.0501  3 -3.0501
288  3.0501  3  3.0501
 
289  3.1001  3  3.1001
290 -3.1101  3 -3.1101
291  3.1101  3  3.1101
292 -3.1201  3 -3.1201
293  3.1201  3  3.1201
294 -3.1301  3 -3.1301
295  3.1301  3  3.1301
296 -3.1401  3 -3.1401
297  3.1401  3  3.1401
298 -3.1501  3 -3.1501
299  3.1501  3  3.1501
 
300  3.2001  3  3.2001
301 -3.2101  3 -3.2101
302  3.2101  3  3.2101
303 -3.2201  3 -3.2201
304  3.2201  3  3.2201
305 -3.2301  3 -3.2301
306  3.2301  3  3.2301
307 -3.2401  3 -3.2401
308  3.2401  3  3.2401
309 -3.2501  3 -3.2501
310  3.2501  3  3.2501
 
311  3.3001  3  3.3001
312 -3.3101  3 -3.3101
313  3.3101  3  3.3101
314 -3.3201  3 -3.3201
315  3.3201  3  3.3201
316 -3.3301  3 -3.3301
317  3.3301  3  3.3301
318 -3.3401  3 -3.3401
319  3.3401  3  3.3401
320 -3.3501  3 -3.3501
321  3.3501  3  3.3501
 
322  3.4001  3  3.4001
323 -3.4101  3 -3.4101
324  3.4101  3  3.4101
325 -3.4201  3 -3.4201
326  3.4201  3  3.4201
327 -3.4301  3 -3.4301
328  3.4301  3  3.4301
329 -3.4401  3 -3.4401
330  3.4401  3  3.4401
331 -3.4501  3 -3.4501
332  3.4501  3  3.4501
 
333  3.5001  3  3.5001
334 -3.5101  3 -3.5101
335  3.5101  3  3.5101
336 -3.5201  3 -3.5201
337  3.5201  3  3.5201
338 -3.5301  3 -3.5301
339  3.5301  3  3.5301
340 -3.5401  3 -3.5401
341  3.5401  3  3.5401
342 -3.5501  3 -3.5501
343  3.5501  3  3.5501
>>>>>>>>>> END <<<<<<<<<<
