 Sr
 KL =  0
 NS =  27
 NSO=  12
 Z  =  38.0
 AM =  88.00
 JM =  -2.0
 R2 =  70.0
 kbr= 2
rnuc= 4.2240

        NL   J       QQ     KP   NC

  1     1S (1/2)   2.0000    0    0
  2     2S (1/2)   2.0000    0    0
  3     2P (1/2)   2.0000    0    0
  4     2P (3/2)   4.0000    0    0
  5     3S (1/2)   2.0000    0    0
  6     3P (1/2)   2.0000    0    0
  7     3P (3/2)   4.0000    0    0
  8     3D (3/2)   4.0000    0    0
  9     3D (5/2)   6.0000    0    0
 10     4S (1/2)   2.0000    0    0
 11     4P (1/2)   2.0000    0    0
 12     4P (3/2)   4.0000    0    0
 13     5S (1/2)   1.0000    0    1
 14     5P (1/2)   1.0000    0    2
 15     5P (3/2)   0.0000    0    2
 16     4D (3/2)   1.0000    0    3
 17     4D (5/2)   0.0000    0    3
 18     6S (1/2)   1.0000    0    4
 19     6P (1/2)   1.0000    0    5
 20     6P (3/2)   0.0000    0    5
 21     5D (3/2)   1.0000    0    6
 22     5D (5/2)   0.0000    0    6
 23     7S (1/2)   1.0000    0    7
 24     7P (1/2)   1.0000    0    8
 25     7P (3/2)   0.0000    0    8
 26     6D (3/2)   1.0000    0    9
 27     6D (5/2)   0.0000    0    9
